     Program PWSCF v.6.8 starts on 13Mar2025 at  8: 6: 9

     Reading input from ni/pwscf.in

     Current dimensions of program PWSCF are:
     Max number of different atomic species (ntypx) = 10
     Max number of k-points (npk) =  40000
     Max angular momentum in pseudopotentials (lmaxx) =  4
     Found symmetry operation: I + (  0.0000 -0.5000 -0.5000)
     This is a supercell, fractional translations are disabled
     Message from routine setup:
     using ibrav=0 with symmetry is DISCOURAGED, use correct ibrav instead

     Subspace diagonalization in iterative solution of the eigenvalue problem:
     a serial algorithm will be used

     Using Slab Decomposition

     bravais-lattice index     =            0
     lattice parameter (alat)  =       6.5762  a.u.
     unit-cell volume          =     284.4031 (a.u.)^3
     number of atoms/cell      =            4
     number of atomic types    =            1
     number of electrons       =        72.00
     number of Kohn-Sham states=           43
     kinetic-energy cutoff     =      45.0000  Ry
     charge density cutoff     =     360.0000  Ry
     scf convergence threshold =      8.0E-10
     mixing beta               =       0.4000
     number of iterations used =            8  plain     mixing
     Exchange-correlation= SLA  PW   PSX  PSC
                           (   1   4  10   8   0   0   0)

     GPU acceleration is ACTIVE.

     GPU used by master process:

        Device Number: 0
        Device name: NVIDIA GeForce RTX 4090
        Compute capability : 89
        Ratio of single to double precision performance  : 64

     celldm(1)=   6.576247  celldm(2)=   0.000000  celldm(3)=   0.000000
     celldm(4)=   0.000000  celldm(5)=   0.000000  celldm(6)=   0.000000

     crystal axes: (cart. coord. in units of alat)
               a(1) = (   1.000000   0.000000   0.000000 )
               a(2) = (   0.000000   1.000000   0.000000 )
               a(3) = (   0.000000   0.000000   1.000000 )

     reciprocal axes: (cart. coord. in units 2 pi/alat)
               b(1) = (  1.000000  0.000000  0.000000 )
               b(2) = (  0.000000  1.000000  0.000000 )
               b(3) = (  0.000000  0.000000  1.000000 )

     PseudoPot. # 1 for Ni read from file:
     ./ni/pseudo/ni_pbesol_v1.4.uspp.F.UPF
     MD5 check sum: de937c0c8ae4b350e69c02b76d8a83cb
     Pseudo is Ultrasoft + core correction, Zval = 18.0
     Generated by new atomic code, or converted to UPF format
     Using radial grid of  865 points,  6 beta functions with:
                l(1) =   0
                l(2) =   0
                l(3) =   1
                l(4) =   1
                l(5) =   2
                l(6) =   2
     Q(r) pseudized with 10 coefficients,  rinner =    0.980   0.980   0.980
                                                       0.980   0.980

     atomic species   valence    mass     pseudopotential
        Ni            18.00    58.69340     Ni( 1.00)

     Starting magnetic structure
     atomic species   magnetization
        Ni           0.278

     48 Sym. Ops., with inversion, found

                                    s                        frac. trans.

      isym =  1     identity

 cryst.   s( 1) = (     1          0          0      )
                  (     0          1          0      )
                  (     0          0          1      )

 cart.    s( 1) = (  1.0000000  0.0000000  0.0000000 )
                  (  0.0000000  1.0000000  0.0000000 )
                  (  0.0000000  0.0000000  1.0000000 )

      isym =  2     180 deg rotation - cart. axis [0,0,1]

[...]

 cryst.   s( 9) = (     0          0          1      )
                  (     0         -1          0      )
                  (     1          0          0      )

 cart.    s( 9) = (  0.0000000  0.0000000  1.0000000 )
                  (  0.0000000 -1.0000000  0.0000000 )
                  (  1.0000000  0.0000000  0.0000000 )

[...]

 cryst.   s(10) = (     0          0         -1      )
                  (     0         -1          0      )
                  (    -1          0          0      )

 cart.    s(10) = (  0.0000000  0.0000000 -1.0000000 )
                  (  0.0000000 -1.0000000  0.0000000 )
                  ( -1.0000000  0.0000000  0.0000000 )

[...]

      isym = 24     120 deg rotation - cart. axis [-1,-1,1]

[...]

      isym = 25     inversion

[...]

      isym = 26     inv. 180 deg rotation - cart. axis [0,0,1]

[...]

      isym = 48     inv. 120 deg rotation - cart. axis [-1,-1,1]

 cryst.   s(48) = (     0         -1          0      )
                  (     0          0          1      )
                  (     1          0          0      )

 cart.    s(48) = (  0.0000000  0.0000000  1.0000000 )
                  ( -1.0000000  0.0000000  0.0000000 )
                  (  0.0000000  1.0000000  0.0000000 )

   Cartesian axes

     site n.     atom                  positions (alat units)
         1           Ni  tau(   1) = (   0.0000000   0.0000000   0.0000000  )
         2           Ni  tau(   2) = (   0.0000000   0.5000000   0.5000000  )
         3           Ni  tau(   3) = (   0.5000000   0.0000000   0.5000000  )
         4           Ni  tau(   4) = (   0.5000000   0.5000000   0.0000000  )

   Crystallographic axes

     site n.     atom                  positions (cryst. coord.)
         1           Ni  tau(   1) = (  0.0000000  0.0000000  0.0000000  )
         2           Ni  tau(   2) = (  0.0000000  0.5000000  0.5000000  )
         3           Ni  tau(   3) = (  0.5000000  0.0000000  0.5000000  )
         4           Ni  tau(   4) = (  0.5000000  0.5000000  0.0000000  )

     number of k points=   220  Marzari-Vanderbilt smearing, width (Ry)=  0.0125
                       cart. coord. in units 2pi/alat
        k(    1) = (   0.0000000   0.0000000   0.0000000), wk =   0.0001458
        k(    2) = (   0.0000000   0.0000000   0.0526316), wk =   0.0008748
        k(    3) = (   0.0000000   0.0000000   0.1052632), wk =   0.0008748
        k(    4) = (   0.0000000   0.0000000   0.1578947), wk =   0.0008748
        k(    5) = (   0.0000000   0.0000000   0.2105263), wk =   0.0008748
        k(    6) = (   0.0000000   0.0000000   0.2631579), wk =   0.0008748
        k(    7) = (   0.0000000   0.0000000   0.3157895), wk =   0.0008748
        k(    8) = (   0.0000000   0.0000000   0.3684211), wk =   0.0008748
        k(    9) = (   0.0000000   0.0000000   0.4210526), wk =   0.0008748
        k(   10) = (   0.0000000   0.0000000   0.4736842), wk =   0.0008748
        k(   11) = (   0.0000000   0.0526316   0.0526316), wk =   0.0017495
        k(   12) = (   0.0000000   0.0526316   0.1052632), wk =   0.0034991
        k(   13) = (   0.0000000   0.0526316   0.1578947), wk =   0.0034991
        k(   14) = (   0.0000000   0.0526316   0.2105263), wk =   0.0034991
        k(   15) = (   0.0000000   0.0526316   0.2631579), wk =   0.0034991
        k(   16) = (   0.0000000   0.0526316   0.3157895), wk =   0.0034991
        k(   17) = (   0.0000000   0.0526316   0.3684211), wk =   0.0034991
        k(   18) = (   0.0000000   0.0526316   0.4210526), wk =   0.0034991
        k(   19) = (   0.0000000   0.0526316   0.4736842), wk =   0.0034991
        k(   20) = (   0.0000000   0.1052632   0.1052632), wk =   0.0017495
        k(   21) = (   0.0000000   0.1052632   0.1578947), wk =   0.0034991
        k(   22) = (   0.0000000   0.1052632   0.2105263), wk =   0.0034991
        k(   23) = (   0.0000000   0.1052632   0.2631579), wk =   0.0034991
        k(   24) = (   0.0000000   0.1052632   0.3157895), wk =   0.0034991
        k(   25) = (   0.0000000   0.1052632   0.3684211), wk =   0.0034991
        k(   26) = (   0.0000000   0.1052632   0.4210526), wk =   0.0034991
        k(   27) = (   0.0000000   0.1052632   0.4736842), wk =   0.0034991
        k(   28) = (   0.0000000   0.1578947   0.1578947), wk =   0.0017495
        k(   29) = (   0.0000000   0.1578947   0.2105263), wk =   0.0034991
        k(   30) = (   0.0000000   0.1578947   0.2631579), wk =   0.0034991
        k(   31) = (   0.0000000   0.1578947   0.3157895), wk =   0.0034991
        k(   32) = (   0.0000000   0.1578947   0.3684211), wk =   0.0034991
        k(   33) = (   0.0000000   0.1578947   0.4210526), wk =   0.0034991
        k(   34) = (   0.0000000   0.1578947   0.4736842), wk =   0.0034991
        k(   35) = (   0.0000000   0.2105263   0.2105263), wk =   0.0017495
        k(   36) = (   0.0000000   0.2105263   0.2631579), wk =   0.0034991
        k(   37) = (   0.0000000   0.2105263   0.3157895), wk =   0.0034991
        k(   38) = (   0.0000000   0.2105263   0.3684211), wk =   0.0034991
        k(   39) = (   0.0000000   0.2105263   0.4210526), wk =   0.0034991
        k(   40) = (   0.0000000   0.2105263   0.4736842), wk =   0.0034991
        k(   41) = (   0.0000000   0.2631579   0.2631579), wk =   0.0017495
        k(   42) = (   0.0000000   0.2631579   0.3157895), wk =   0.0034991
        k(   43) = (   0.0000000   0.2631579   0.3684211), wk =   0.0034991
        k(   44) = (   0.0000000   0.2631579   0.4210526), wk =   0.0034991
        k(   45) = (   0.0000000   0.2631579   0.4736842), wk =   0.0034991
        k(   46) = (   0.0000000   0.3157895   0.3157895), wk =   0.0017495
        k(   47) = (   0.0000000   0.3157895   0.3684211), wk =   0.0034991
        k(   48) = (   0.0000000   0.3157895   0.4210526), wk =   0.0034991
        k(   49) = (   0.0000000   0.3157895   0.4736842), wk =   0.0034991
        k(   50) = (   0.0000000   0.3684211   0.3684211), wk =   0.0017495
        k(   51) = (   0.0000000   0.3684211   0.4210526), wk =   0.0034991
        k(   52) = (   0.0000000   0.3684211   0.4736842), wk =   0.0034991
        k(   53) = (   0.0000000   0.4210526   0.4210526), wk =   0.0017495
        k(   54) = (   0.0000000   0.4210526   0.4736842), wk =   0.0034991
        k(   55) = (   0.0000000   0.4736842   0.4736842), wk =   0.0017495
        k(   56) = (   0.0526316   0.0526316   0.0526316), wk =   0.0011664
        k(   57) = (   0.0526316   0.0526316   0.1052632), wk =   0.0034991
        k(   58) = (   0.0526316   0.0526316   0.1578947), wk =   0.0034991
        k(   59) = (   0.0526316   0.0526316   0.2105263), wk =   0.0034991
        k(   60) = (   0.0526316   0.0526316   0.2631579), wk =   0.0034991
[...]
        k(  206) = (   0.3157895   0.3684211   0.4210526), wk =   0.0069981
        k(  207) = (   0.3157895   0.3684211   0.4736842), wk =   0.0069981
        k(  208) = (   0.3157895   0.4210526   0.4210526), wk =   0.0034991
        k(  209) = (   0.3157895   0.4210526   0.4736842), wk =   0.0069981
        k(  210) = (   0.3157895   0.4736842   0.4736842), wk =   0.0034991
        k(  211) = (   0.3684211   0.3684211   0.3684211), wk =   0.0011664
        k(  212) = (   0.3684211   0.3684211   0.4210526), wk =   0.0034991
        k(  213) = (   0.3684211   0.3684211   0.4736842), wk =   0.0034991
        k(  214) = (   0.3684211   0.4210526   0.4210526), wk =   0.0034991
        k(  215) = (   0.3684211   0.4210526   0.4736842), wk =   0.0069981
        k(  216) = (   0.3684211   0.4736842   0.4736842), wk =   0.0034991
        k(  217) = (   0.4210526   0.4210526   0.4210526), wk =   0.0011664
        k(  218) = (   0.4210526   0.4210526   0.4736842), wk =   0.0034991
        k(  219) = (   0.4210526   0.4736842   0.4736842), wk =   0.0034991
        k(  220) = (   0.4736842   0.4736842   0.4736842), wk =   0.0011664

                       cryst. coord.
        k(    1) = (   0.0000000   0.0000000   0.0000000), wk =   0.0001458
        k(    2) = (   0.0000000   0.0000000   0.0526316), wk =   0.0008748
        k(    3) = (   0.0000000   0.0000000   0.1052632), wk =   0.0008748
        k(    4) = (   0.0000000   0.0000000   0.1578947), wk =   0.0008748
        k(    5) = (   0.0000000   0.0000000   0.2105263), wk =   0.0008748
        k(    6) = (   0.0000000   0.0000000   0.2631579), wk =   0.0008748
        k(    7) = (   0.0000000   0.0000000   0.3157895), wk =   0.0008748
        k(    8) = (   0.0000000   0.0000000   0.3684211), wk =   0.0008748
        k(    9) = (   0.0000000   0.0000000   0.4210526), wk =   0.0008748
        k(   10) = (   0.0000000   0.0000000   0.4736842), wk =   0.0008748
        k(   11) = (   0.0000000   0.0526316   0.0526316), wk =   0.0017495
        k(   12) = (   0.0000000   0.0526316   0.1052632), wk =   0.0034991
        k(   13) = (   0.0000000   0.0526316   0.1578947), wk =   0.0034991
        k(   14) = (   0.0000000   0.0526316   0.2105263), wk =   0.0034991
        k(   15) = (   0.0000000   0.0526316   0.2631579), wk =   0.0034991
        k(   16) = (   0.0000000   0.0526316   0.3157895), wk =   0.0034991
        k(   17) = (   0.0000000   0.0526316   0.3684211), wk =   0.0034991
        k(   18) = (   0.0000000   0.0526316   0.4210526), wk =   0.0034991
        k(   19) = (   0.0000000   0.0526316   0.4736842), wk =   0.0034991
        k(   20) = (   0.0000000   0.1052632   0.1052632), wk =   0.0017495
        k(   21) = (   0.0000000   0.1052632   0.1578947), wk =   0.0034991
        k(   22) = (   0.0000000   0.1052632   0.2105263), wk =   0.0034991
        k(   23) = (   0.0000000   0.1052632   0.2631579), wk =   0.0034991
        k(   24) = (   0.0000000   0.1052632   0.3157895), wk =   0.0034991
        k(   25) = (   0.0000000   0.1052632   0.3684211), wk =   0.0034991
        k(   26) = (   0.0000000   0.1052632   0.4210526), wk =   0.0034991
        k(   27) = (   0.0000000   0.1052632   0.4736842), wk =   0.0034991
        k(   28) = (   0.0000000   0.1578947   0.1578947), wk =   0.0017495
        k(   29) = (   0.0000000   0.1578947   0.2105263), wk =   0.0034991
        k(   30) = (   0.0000000   0.1578947   0.2631579), wk =   0.0034991
        k(   31) = (   0.0000000   0.1578947   0.3157895), wk =   0.0034991
        k(   32) = (   0.0000000   0.1578947   0.3684211), wk =   0.0034991
        k(   33) = (   0.0000000   0.1578947   0.4210526), wk =   0.0034991
        k(   34) = (   0.0000000   0.1578947   0.4736842), wk =   0.0034991
        k(   35) = (   0.0000000   0.2105263   0.2105263), wk =   0.0017495
        k(   36) = (   0.0000000   0.2105263   0.2631579), wk =   0.0034991
        k(   37) = (   0.0000000   0.2105263   0.3157895), wk =   0.0034991
        k(   38) = (   0.0000000   0.2105263   0.3684211), wk =   0.0034991
        k(   39) = (   0.0000000   0.2105263   0.4210526), wk =   0.0034991
        k(   40) = (   0.0000000   0.2105263   0.4736842), wk =   0.0034991
        k(   41) = (   0.0000000   0.2631579   0.2631579), wk =   0.0017495
        k(   42) = (   0.0000000   0.2631579   0.3157895), wk =   0.0034991
        k(   43) = (   0.0000000   0.2631579   0.3684211), wk =   0.0034991
        k(   44) = (   0.0000000   0.2631579   0.4210526), wk =   0.0034991
        k(   45) = (   0.0000000   0.2631579   0.4736842), wk =   0.0034991
        k(   46) = (   0.0000000   0.3157895   0.3157895), wk =   0.0017495
        k(   47) = (   0.0000000   0.3157895   0.3684211), wk =   0.0034991
        k(   48) = (   0.0000000   0.3157895   0.4210526), wk =   0.0034991
        k(   49) = (   0.0000000   0.3157895   0.4736842), wk =   0.0034991
        k(   50) = (   0.0000000   0.3684211   0.3684211), wk =   0.0017495
        k(   51) = (   0.0000000   0.3684211   0.4210526), wk =   0.0034991
        k(   52) = (   0.0000000   0.3684211   0.4736842), wk =   0.0034991
        k(   53) = (   0.0000000   0.4210526   0.4210526), wk =   0.0017495
        k(   54) = (   0.0000000   0.4210526   0.4736842), wk =   0.0034991
        k(   55) = (   0.0000000   0.4736842   0.4736842), wk =   0.0017495
        k(   56) = (   0.0526316   0.0526316   0.0526316), wk =   0.0011664
        k(   57) = (   0.0526316   0.0526316   0.1052632), wk =   0.0034991
        k(   58) = (   0.0526316   0.0526316   0.1578947), wk =   0.0034991
        k(   59) = (   0.0526316   0.0526316   0.2105263), wk =   0.0034991
        k(   60) = (   0.0526316   0.0526316   0.2631579), wk =   0.0034991
[...]
        k(  206) = (   0.3157895   0.3684211   0.4210526), wk =   0.0069981
        k(  207) = (   0.3157895   0.3684211   0.4736842), wk =   0.0069981
        k(  208) = (   0.3157895   0.4210526   0.4210526), wk =   0.0034991
        k(  209) = (   0.3157895   0.4210526   0.4736842), wk =   0.0069981
        k(  210) = (   0.3157895   0.4736842   0.4736842), wk =   0.0034991
        k(  211) = (   0.3684211   0.3684211   0.3684211), wk =   0.0011664
        k(  212) = (   0.3684211   0.3684211   0.4210526), wk =   0.0034991
        k(  213) = (   0.3684211   0.3684211   0.4736842), wk =   0.0034991
        k(  214) = (   0.3684211   0.4210526   0.4210526), wk =   0.0034991
        k(  215) = (   0.3684211   0.4210526   0.4736842), wk =   0.0069981
        k(  216) = (   0.3684211   0.4736842   0.4736842), wk =   0.0034991
        k(  217) = (   0.4210526   0.4210526   0.4210526), wk =   0.0011664
        k(  218) = (   0.4210526   0.4210526   0.4736842), wk =   0.0034991
        k(  219) = (   0.4210526   0.4736842   0.4736842), wk =   0.0034991
        k(  220) = (   0.4736842   0.4736842   0.4736842), wk =   0.0011664

     Check: negative core charge=   -0.000009
     Generating pointlists ...
     new r_m :   0.2917 (alat units)  1.9182 (a.u.) for type    1

     Initial potential from superposition of free atoms

     starting charge   64.00000, renormalised to   72.00000
     Starting wfcs are   52 randomized atomic wfcs

     Self-consistent Calculation

     iteration #  1     ecut=    45.00 Ry     beta= 0.40
     Davidson diagonalization with overlap

     ethr =  1.00E-02,  avg # of iterations =  3.2

     total energy              =   -1335.08217758 Ry
     estimated scf accuracy    <     122.52787491 Ry

     total magnetization       =     4.50 Bohr mag/cell
     absolute magnetization    =     4.80 Bohr mag/cell

[...]

     ethr =  1.00E-02,  avg # of iterations =  3.3
     Minimization algorithm failed to find Fermi energy: reverting to bisection
     Possible cause: smearing is larger than the electronic band-gap.

[...]

     total energy              =   -1372.35154786 Ry
     estimated scf accuracy    <          3.8E-09 Ry

[...]

     iteration # 15     ecut=    45.00 Ry     beta= 0.40
     Davidson diagonalization with overlap

     ethr =  5.33E-12,  avg # of iterations =  2.1

     Magnetic moment per site  (integrated on atomic sphere of radius R)
     atom   1 (R=0.292)  charge= 16.6708  magn=  0.6851
     atom   2 (R=0.292)  charge= 16.6708  magn=  0.6851
     atom   3 (R=0.292)  charge= 16.6708  magn=  0.6851
     atom   4 (R=0.292)  charge= 16.6708  magn=  0.6851

     End of self-consistent calculation

 ------ SPIN UP ------------

          k = 0.0000 0.0000 0.0000 (  1419 PWs)   bands (ev):

   -85.0895 -85.0372 -85.0372 -85.0372 -45.7077 -45.7077 -45.7077 -45.5665
   -45.5665 -45.5665 -45.5665 -45.5665 -45.5665 -45.4742 -45.4742 -45.4742
     9.0180  13.4696  13.4696  13.4696  13.9895  13.9895  13.9895  15.8663
    15.8663  15.8663  17.0644  17.0644  17.8158  17.8158  17.8158  17.9538
    17.9538  17.9538  17.9538  17.9538  17.9538  20.7570  20.7570  20.7570
    27.7963  27.7963  27.7963

     occupation numbers
     1.0000   1.0000   1.0000   1.0000   1.0000   1.0000   1.0000   1.0000
     1.0000   1.0000   1.0000   1.0000   1.0000   1.0000   1.0000   1.0000
     1.0000   1.0000   1.0000   1.0000   1.0000   1.0000   1.0000   1.0000
     1.0000   1.0000   1.0000   1.0000   1.0000   1.0000   1.0000   1.0020
     1.0020   1.0020   1.0020   1.0020   1.0020   0.0000   0.0000   0.0000
     0.0000   0.0000   0.0000

[...]

 ------ SPIN DOWN ----------

[...]

          k = 0.4737 0.4737 0.4737 (  1466 PWs)   bands (ev):

[...]

     occupation numbers
     1.0000   1.0000   1.0000   1.0000   1.0000   1.0000   1.0000   1.0000
     1.0000   1.0000   1.0000   1.0000   1.0000   1.0000   1.0000   1.0000
     1.0000   1.0000   1.0000   1.0000   1.0000   1.0000   1.0000   1.0000
     1.0000   1.0000   1.0000   1.0000   1.0000   1.0000   1.0000   1.0000
     0.0373   0.0373   0.0290   0.0290   0.0290   0.0004   0.0004   0.0004
     0.0000   0.0000   0.0000

     the Fermi energy is    18.4526 ev

!    total energy              =   -1372.35154786 Ry
     estimated scf accuracy    <          6.0E-10 Ry
     smearing contrib. (-TS)   =      -0.00094698 Ry
     internal energy E=F+TS    =   -1372.35060088 Ry

     The total energy is F=E-TS. E is the sum of the following terms:
     one-electron contribution =    -750.87663053 Ry
     hartree contribution      =     422.89415109 Ry
     xc contribution           =    -140.81609154 Ry
     ewald contribution        =    -903.55202991 Ry

     total magnetization       =     2.59 Bohr mag/cell
     absolute magnetization    =     2.95 Bohr mag/cell

     convergence has been achieved in  15 iterations

     Forces acting on atoms (cartesian axes, Ry/au):

     atom    1 type  1   force =     0.00000000    0.00000000    0.00000000
     atom    2 type  1   force =     0.00000000    0.00000000    0.00000000
     atom    3 type  1   force =     0.00000000    0.00000000    0.00000000
     atom    4 type  1   force =     0.00000000    0.00000000    0.00000000
     The non-local contrib.  to forces
     atom    1 type  1   force =     0.00000000    0.00000000    0.00000000
     atom    2 type  1   force =     0.00000000    0.00000000    0.00000000
     atom    3 type  1   force =     0.00000000    0.00000000    0.00000000
     atom    4 type  1   force =     0.00000000    0.00000000    0.00000000
     The ionic contribution  to forces
     atom    1 type  1   force =    -0.00000000   -0.00000000   -0.00000000
     atom    2 type  1   force =    -0.00000000    0.00000000    0.00000000
     atom    3 type  1   force =     0.00000000   -0.00000000    0.00000000
     atom    4 type  1   force =     0.00000000    0.00000000   -0.00000000
     The local contribution  to forces
     atom    1 type  1   force =    -0.00000000   -0.00000000   -0.00000000
     atom    2 type  1   force =    -0.00000000    0.00000000    0.00000000
     atom    3 type  1   force =     0.00000000   -0.00000000    0.00000000
     atom    4 type  1   force =     0.00000000    0.00000000   -0.00000000
     The core correction contribution to forces
     atom    1 type  1   force =    -0.00000000   -0.00000000   -0.00000000
     atom    2 type  1   force =    -0.00000000   -0.00000000    0.00000000
     atom    3 type  1   force =     0.00000000   -0.00000000    0.00000000
     atom    4 type  1   force =     0.00000000    0.00000000   -0.00000000
     The Hubbard contrib.    to forces
     atom    1 type  1   force =     0.00000000    0.00000000    0.00000000
     atom    2 type  1   force =     0.00000000    0.00000000    0.00000000
     atom    3 type  1   force =     0.00000000    0.00000000    0.00000000
     atom    4 type  1   force =     0.00000000    0.00000000    0.00000000
     The SCF correction term to forces
     atom    1 type  1   force =    -0.00000000    0.00000000    0.00000000
     atom    2 type  1   force =    -0.00000000    0.00000000    0.00000000
     atom    3 type  1   force =     0.00000000    0.00000000    0.00000000
     atom    4 type  1   force =    -0.00000000   -0.00000000   -0.00000000

     Total force =     0.000000     Total SCF correction =     0.000000

     Computing stress (Cartesian axis) and pressure

          total   stress  (Ry/bohr**3)                   (kbar)     P=      -34.24
  -0.00023273   0.00000000   0.00000000          -34.24        0.00        0.00
   0.00000000  -0.00023273   0.00000000            0.00      -34.24        0.00
   0.00000000   0.00000000  -0.00023273            0.00        0.00      -34.24

     kinetic stress (kbar)  64147.28      0.00      0.00
                                0.00  64147.28      0.00
                                0.00      0.00  64147.28

     local   stress (kbar)  11911.82     -0.00     -0.00
                               -0.00  11911.82     -0.00
                               -0.00     -0.00  11911.82

     nonloc. stress (kbar)  29743.78      0.00      0.00
                                0.00  29743.78      0.00
                                0.00      0.00  29743.78

     hartree stress (kbar)  72912.80      0.00      0.00
                                0.00  72912.80      0.00
                                0.00      0.00  72912.80

     exc-cor stress (kbar) -19255.95      0.00     -0.00
                                0.00 -19255.95      0.00
                               -0.00      0.00 -19255.95

     corecor stress (kbar)  -3709.10      0.00     -0.00
                                0.00  -3709.10     -0.00
                               -0.00     -0.00  -3709.10

     ewald   stress (kbar)-155784.86      0.00     -0.00
                                0.00-155784.86     -0.00
                               -0.00     -0.00-155784.86

     hubbard stress (kbar)      0.00      0.00      0.00
                                0.00      0.00      0.00
                                0.00      0.00      0.00

     DFT-D   stress (kbar)      0.00      0.00      0.00
                                0.00      0.00      0.00
                                0.00      0.00      0.00

     XDM     stress (kbar)      0.00      0.00      0.00
                                0.00      0.00      0.00
                                0.00      0.00      0.00

     dft-nl  stress (kbar)      0.00      0.00      0.00
                                0.00      0.00      0.00
                                0.00      0.00      0.00

     TS-vdW  stress (kbar)      0.00      0.00      0.00
                                0.00      0.00      0.00
                                0.00      0.00      0.00

[...]

                                0.00      0.00      0.00

     Writing output data file ./ni/out/aiida.save/

     General routines
                                        0.01s GPU  (      40 calls)
                                        7.79s GPU  (  128816 calls)

     Parallel routines

   This run was terminated on:   8: 8: 9  13Mar2025

   JOB DONE.
Warning: ieee_invalid is signaling
Warning: ieee_divide_by_zero is signaling
Warning: ieee_underflow is signaling
Warning: ieee_inexact is signaling
FORTRAN STOP