     Program PWSCF v.6.8 starts on 27Feb2025 at  2:56:25

     Reading input from fept/pwscf.in

     Current dimensions of program PWSCF are:
     Max number of different atomic species (ntypx) = 10
     Max number of k-points (npk) =  40000
     Max angular momentum in pseudopotentials (lmaxx) =  4
     file Fe.pbesol-spn-kjpaw_psl.0.2.1.UPF: wavefunction(s)  3D renormalized
     Message from routine setup:
     using ibrav=0 with symmetry is DISCOURAGED, use correct ibrav instead

     Subspace diagonalization in iterative solution of the eigenvalue problem:
     a serial algorithm will be used

     Using Slab Decomposition

     bravais-lattice index     =            0
     lattice parameter (alat)  =       7.2754  a.u.
     unit-cell volume          =     372.1011 (a.u.)^3
     number of atoms/cell      =            2
     number of atomic types    =            2
     number of electrons       =        32.00
     number of Kohn-Sham states=           20
     kinetic-energy cutoff     =      90.0000  Ry
     charge density cutoff     =    1080.0000  Ry
     scf convergence threshold =      4.0E-10
     mixing beta               =       0.4000
     number of iterations used =            8  plain     mixing
     Exchange-correlation= SLA  PW   PSX  PSC
                           (   1   4  10   8   0   0   0)

     GPU acceleration is ACTIVE.

     GPU used by master process:

        Device Number: 0
        Device name: NVIDIA GeForce RTX 4090
        Compute capability : 89
        Ratio of single to double precision performance  : 64

     celldm(1)=   7.275446  celldm(2)=   0.000000  celldm(3)=   0.000000
     celldm(4)=   0.000000  celldm(5)=   0.000000  celldm(6)=   0.000000

     crystal axes: (cart. coord. in units of alat)
               a(1) = (   1.000000   0.000000   0.000000 )
               a(2) = (   0.000000   1.000000   0.000000 )
               a(3) = (   0.000000   0.000000   0.966234 )

     reciprocal axes: (cart. coord. in units 2 pi/alat)
               b(1) = (  1.000000  0.000000  0.000000 )
               b(2) = (  0.000000  1.000000  0.000000 )
               b(3) = (  0.000000  0.000000  1.034946 )

     PseudoPot. # 1 for Fe read from file:
     ./fept/pseudo/Fe.pbesol-spn-kjpaw_psl.0.2.1.UPF
     MD5 check sum: 4d7ec5aa2156491519a4322664fbbf52
     Pseudo is Projector augmented-wave + core cor, Zval = 16.0
     Generated using "atomic" code by A. Dal Corso  v.6.0 svn rev. 13079
     Shape of augmentation charge: PSQ
     Using radial grid of 1191 points,  6 beta functions with:
                l(1) =   0
                l(2) =   0
                l(3) =   1
                l(4) =   1
                l(5) =   2
                l(6) =   2
     Q(r) pseudized with 0 coefficients

     PseudoPot. # 2 for Pt read from file:
     ./fept/pseudo/pt_pbesol_v1.4.uspp.F.UPF
     MD5 check sum: d14d547907f752a992688280a7473f8c
     Pseudo is Ultrasoft + core correction, Zval = 16.0
     Generated by new atomic code, or converted to UPF format
     Using radial grid of  985 points,  6 beta functions with:
                l(1) =   0
                l(2) =   0
                l(3) =   1
                l(4) =   1
                l(5) =   2
                l(6) =   2
     Q(r) pseudized with  8 coefficients,  rinner =    1.300   1.300   1.300
                                                       1.300   1.300

     atomic species   valence    mass     pseudopotential
        Fe            16.00    55.84500     Fe( 1.00)
        Pt            16.00   195.08400     Pt( 1.00)

     Starting magnetic structure
     atomic species   magnetization
        Fe           0.313
        Pt           0.313

     16 Sym. Ops., with inversion, found

                                    s                        frac. trans.

      isym =  1     identity

 cryst.   s( 1) = (     1          0          0      )
                  (     0          1          0      )
                  (     0          0          1      )

 cart.    s( 1) = (  1.0000000  0.0000000  0.0000000 )
                  (  0.0000000  1.0000000  0.0000000 )
                  (  0.0000000  0.0000000  1.0000000 )

      isym =  2     180 deg rotation - cart. axis [0,0,1]

[...]

      isym =  8      90 deg rotation - cart. axis [0,0,1]

[...]

      isym =  9     inversion

 cryst.   s( 9) = (    -1          0          0      )
                  (     0         -1          0      )
                  (     0          0         -1      )

 cart.    s( 9) = ( -1.0000000  0.0000000  0.0000000 )
                  (  0.0000000 -1.0000000  0.0000000 )
                  (  0.0000000  0.0000000 -1.0000000 )

      isym = 10     inv. 180 deg rotation - cart. axis [0,0,1]

 cryst.   s(10) = (     1          0          0      )
                  (     0          1          0      )
                  (     0          0         -1      )

 cart.    s(10) = (  1.0000000  0.0000000  0.0000000 )
                  (  0.0000000  1.0000000  0.0000000 )
                  (  0.0000000  0.0000000 -1.0000000 )

[...]

      isym = 16     inv.  90 deg rotation - cart. axis [0,0,1]

 cryst.   s(16) = (     0         -1          0      )
                  (     1          0          0      )
                  (     0          0         -1      )

 cart.    s(16) = (  0.0000000  1.0000000  0.0000000 )
                  ( -1.0000000  0.0000000  0.0000000 )
                  (  0.0000000  0.0000000 -1.0000000 )

   Cartesian axes

     site n.     atom                  positions (alat units)
         1           Fe  tau(   1) = (   0.0000000   0.0000000   0.0000000  )
         2           Pt  tau(   2) = (   0.5000000   0.5000000   0.4831169  )

   Crystallographic axes

     site n.     atom                  positions (cryst. coord.)
         1           Fe  tau(   1) = (  0.0000000  0.0000000  0.0000000  )
         2           Pt  tau(   2) = (  0.5000000  0.5000000  0.5000000  )

     number of k points=   147  Marzari-Vanderbilt smearing, width (Ry)=  0.0200
                       cart. coord. in units 2pi/alat
        k(    1) = (   0.0000000   0.0000000   0.0000000), wk =   0.0006887
        k(    2) = (   0.0000000   0.0000000   0.0862455), wk =   0.0013774
        k(    3) = (   0.0000000   0.0000000   0.1724910), wk =   0.0013774
        k(    4) = (   0.0000000   0.0000000   0.2587366), wk =   0.0013774
        k(    5) = (   0.0000000   0.0000000   0.3449821), wk =   0.0013774
        k(    6) = (   0.0000000   0.0000000   0.4312276), wk =   0.0013774
        k(    7) = (   0.0000000   0.0000000  -0.5174731), wk =   0.0006887
        k(    8) = (   0.0000000   0.0909091   0.0000000), wk =   0.0027548
        k(    9) = (   0.0000000   0.0909091   0.0862455), wk =   0.0055096
        k(   10) = (   0.0000000   0.0909091   0.1724910), wk =   0.0055096
        k(   11) = (   0.0000000   0.0909091   0.2587366), wk =   0.0055096
        k(   12) = (   0.0000000   0.0909091   0.3449821), wk =   0.0055096
        k(   13) = (   0.0000000   0.0909091   0.4312276), wk =   0.0055096
        k(   14) = (   0.0000000   0.0909091  -0.5174731), wk =   0.0027548
        k(   15) = (   0.0000000   0.1818182   0.0000000), wk =   0.0027548
        k(   16) = (   0.0000000   0.1818182   0.0862455), wk =   0.0055096
        k(   17) = (   0.0000000   0.1818182   0.1724910), wk =   0.0055096
        k(   18) = (   0.0000000   0.1818182   0.2587366), wk =   0.0055096
        k(   19) = (   0.0000000   0.1818182   0.3449821), wk =   0.0055096
        k(   20) = (   0.0000000   0.1818182   0.4312276), wk =   0.0055096
        k(   21) = (   0.0000000   0.1818182  -0.5174731), wk =   0.0027548
        k(   22) = (   0.0000000   0.2727273   0.0000000), wk =   0.0027548
        k(   23) = (   0.0000000   0.2727273   0.0862455), wk =   0.0055096
        k(   24) = (   0.0000000   0.2727273   0.1724910), wk =   0.0055096
        k(   25) = (   0.0000000   0.2727273   0.2587366), wk =   0.0055096
        k(   26) = (   0.0000000   0.2727273   0.3449821), wk =   0.0055096
        k(   27) = (   0.0000000   0.2727273   0.4312276), wk =   0.0055096
        k(   28) = (   0.0000000   0.2727273  -0.5174731), wk =   0.0027548
        k(   29) = (   0.0000000   0.3636364   0.0000000), wk =   0.0027548
        k(   30) = (   0.0000000   0.3636364   0.0862455), wk =   0.0055096
        k(   31) = (   0.0000000   0.3636364   0.1724910), wk =   0.0055096
        k(   32) = (   0.0000000   0.3636364   0.2587366), wk =   0.0055096
        k(   33) = (   0.0000000   0.3636364   0.3449821), wk =   0.0055096
        k(   34) = (   0.0000000   0.3636364   0.4312276), wk =   0.0055096
        k(   35) = (   0.0000000   0.3636364  -0.5174731), wk =   0.0027548
        k(   36) = (   0.0000000   0.4545455   0.0000000), wk =   0.0027548
        k(   37) = (   0.0000000   0.4545455   0.0862455), wk =   0.0055096
        k(   38) = (   0.0000000   0.4545455   0.1724910), wk =   0.0055096
        k(   39) = (   0.0000000   0.4545455   0.2587366), wk =   0.0055096
        k(   40) = (   0.0000000   0.4545455   0.3449821), wk =   0.0055096
        k(   41) = (   0.0000000   0.4545455   0.4312276), wk =   0.0055096
        k(   42) = (   0.0000000   0.4545455  -0.5174731), wk =   0.0027548
        k(   43) = (   0.0909091   0.0909091   0.0000000), wk =   0.0027548
        k(   44) = (   0.0909091   0.0909091   0.0862455), wk =   0.0055096
        k(   45) = (   0.0909091   0.0909091   0.1724910), wk =   0.0055096
        k(   46) = (   0.0909091   0.0909091   0.2587366), wk =   0.0055096
        k(   47) = (   0.0909091   0.0909091   0.3449821), wk =   0.0055096
        k(   48) = (   0.0909091   0.0909091   0.4312276), wk =   0.0055096
        k(   49) = (   0.0909091   0.0909091  -0.5174731), wk =   0.0027548
        k(   50) = (   0.0909091   0.1818182   0.0000000), wk =   0.0055096
        k(   51) = (   0.0909091   0.1818182   0.0862455), wk =   0.0110193
        k(   52) = (   0.0909091   0.1818182   0.1724910), wk =   0.0110193
        k(   53) = (   0.0909091   0.1818182   0.2587366), wk =   0.0110193
        k(   54) = (   0.0909091   0.1818182   0.3449821), wk =   0.0110193
        k(   55) = (   0.0909091   0.1818182   0.4312276), wk =   0.0110193
        k(   56) = (   0.0909091   0.1818182  -0.5174731), wk =   0.0055096
        k(   57) = (   0.0909091   0.2727273   0.0000000), wk =   0.0055096
        k(   58) = (   0.0909091   0.2727273   0.0862455), wk =   0.0110193
        k(   59) = (   0.0909091   0.2727273   0.1724910), wk =   0.0110193
        k(   60) = (   0.0909091   0.2727273   0.2587366), wk =   0.0110193
[...]
        k(  133) = (   0.3636364   0.3636364  -0.5174731), wk =   0.0027548
        k(  134) = (   0.3636364   0.4545455   0.0000000), wk =   0.0055096
        k(  135) = (   0.3636364   0.4545455   0.0862455), wk =   0.0110193
        k(  136) = (   0.3636364   0.4545455   0.1724910), wk =   0.0110193
        k(  137) = (   0.3636364   0.4545455   0.2587366), wk =   0.0110193
        k(  138) = (   0.3636364   0.4545455   0.3449821), wk =   0.0110193
        k(  139) = (   0.3636364   0.4545455   0.4312276), wk =   0.0110193
        k(  140) = (   0.3636364   0.4545455  -0.5174731), wk =   0.0055096
        k(  141) = (   0.4545455   0.4545455   0.0000000), wk =   0.0027548
        k(  142) = (   0.4545455   0.4545455   0.0862455), wk =   0.0055096
        k(  143) = (   0.4545455   0.4545455   0.1724910), wk =   0.0055096
        k(  144) = (   0.4545455   0.4545455   0.2587366), wk =   0.0055096
        k(  145) = (   0.4545455   0.4545455   0.3449821), wk =   0.0055096
        k(  146) = (   0.4545455   0.4545455   0.4312276), wk =   0.0055096
        k(  147) = (   0.4545455   0.4545455  -0.5174731), wk =   0.0027548

                       cryst. coord.
        k(    1) = (   0.0000000   0.0000000   0.0000000), wk =   0.0006887
        k(    2) = (   0.0000000   0.0000000   0.0833333), wk =   0.0013774
        k(    3) = (   0.0000000   0.0000000   0.1666667), wk =   0.0013774
        k(    4) = (   0.0000000   0.0000000   0.2500000), wk =   0.0013774
        k(    5) = (   0.0000000   0.0000000   0.3333333), wk =   0.0013774
        k(    6) = (   0.0000000   0.0000000   0.4166667), wk =   0.0013774
        k(    7) = (   0.0000000   0.0000000  -0.5000000), wk =   0.0006887
        k(    8) = (   0.0000000   0.0909091   0.0000000), wk =   0.0027548
        k(    9) = (   0.0000000   0.0909091   0.0833333), wk =   0.0055096
        k(   10) = (   0.0000000   0.0909091   0.1666667), wk =   0.0055096
        k(   11) = (   0.0000000   0.0909091   0.2500000), wk =   0.0055096
        k(   12) = (   0.0000000   0.0909091   0.3333333), wk =   0.0055096
        k(   13) = (   0.0000000   0.0909091   0.4166667), wk =   0.0055096
        k(   14) = (   0.0000000   0.0909091  -0.5000000), wk =   0.0027548
        k(   15) = (   0.0000000   0.1818182   0.0000000), wk =   0.0027548
        k(   16) = (   0.0000000   0.1818182   0.0833333), wk =   0.0055096
        k(   17) = (   0.0000000   0.1818182   0.1666667), wk =   0.0055096
        k(   18) = (   0.0000000   0.1818182   0.2500000), wk =   0.0055096
        k(   19) = (   0.0000000   0.1818182   0.3333333), wk =   0.0055096
        k(   20) = (   0.0000000   0.1818182   0.4166667), wk =   0.0055096
        k(   21) = (   0.0000000   0.1818182  -0.5000000), wk =   0.0027548
        k(   22) = (   0.0000000   0.2727273   0.0000000), wk =   0.0027548
        k(   23) = (   0.0000000   0.2727273   0.0833333), wk =   0.0055096
        k(   24) = (   0.0000000   0.2727273   0.1666667), wk =   0.0055096
        k(   25) = (   0.0000000   0.2727273   0.2500000), wk =   0.0055096
        k(   26) = (   0.0000000   0.2727273   0.3333333), wk =   0.0055096
        k(   27) = (   0.0000000   0.2727273   0.4166667), wk =   0.0055096
        k(   28) = (   0.0000000   0.2727273  -0.5000000), wk =   0.0027548
        k(   29) = (   0.0000000   0.3636364   0.0000000), wk =   0.0027548
        k(   30) = (   0.0000000   0.3636364   0.0833333), wk =   0.0055096
        k(   31) = (   0.0000000   0.3636364   0.1666667), wk =   0.0055096
        k(   32) = (   0.0000000   0.3636364   0.2500000), wk =   0.0055096
        k(   33) = (   0.0000000   0.3636364   0.3333333), wk =   0.0055096
        k(   34) = (   0.0000000   0.3636364   0.4166667), wk =   0.0055096
        k(   35) = (   0.0000000   0.3636364  -0.5000000), wk =   0.0027548
        k(   36) = (   0.0000000   0.4545455   0.0000000), wk =   0.0027548
        k(   37) = (   0.0000000   0.4545455   0.0833333), wk =   0.0055096
        k(   38) = (   0.0000000   0.4545455   0.1666667), wk =   0.0055096
        k(   39) = (   0.0000000   0.4545455   0.2500000), wk =   0.0055096
        k(   40) = (   0.0000000   0.4545455   0.3333333), wk =   0.0055096
        k(   41) = (   0.0000000   0.4545455   0.4166667), wk =   0.0055096
        k(   42) = (   0.0000000   0.4545455  -0.5000000), wk =   0.0027548
        k(   43) = (   0.0909091   0.0909091   0.0000000), wk =   0.0027548
        k(   44) = (   0.0909091   0.0909091   0.0833333), wk =   0.0055096
        k(   45) = (   0.0909091   0.0909091   0.1666667), wk =   0.0055096
        k(   46) = (   0.0909091   0.0909091   0.2500000), wk =   0.0055096
        k(   47) = (   0.0909091   0.0909091   0.3333333), wk =   0.0055096
        k(   48) = (   0.0909091   0.0909091   0.4166667), wk =   0.0055096
        k(   49) = (   0.0909091   0.0909091  -0.5000000), wk =   0.0027548
        k(   50) = (   0.0909091   0.1818182   0.0000000), wk =   0.0055096
        k(   51) = (   0.0909091   0.1818182   0.0833333), wk =   0.0110193
        k(   52) = (   0.0909091   0.1818182   0.1666667), wk =   0.0110193
        k(   53) = (   0.0909091   0.1818182   0.2500000), wk =   0.0110193
        k(   54) = (   0.0909091   0.1818182   0.3333333), wk =   0.0110193
        k(   55) = (   0.0909091   0.1818182   0.4166667), wk =   0.0110193
        k(   56) = (   0.0909091   0.1818182  -0.5000000), wk =   0.0055096
        k(   57) = (   0.0909091   0.2727273   0.0000000), wk =   0.0055096
        k(   58) = (   0.0909091   0.2727273   0.0833333), wk =   0.0110193
        k(   59) = (   0.0909091   0.2727273   0.1666667), wk =   0.0110193
        k(   60) = (   0.0909091   0.2727273   0.2500000), wk =   0.0110193
[...]
        k(  133) = (   0.3636364   0.3636364  -0.5000000), wk =   0.0027548
        k(  134) = (   0.3636364   0.4545455   0.0000000), wk =   0.0055096
        k(  135) = (   0.3636364   0.4545455   0.0833333), wk =   0.0110193
        k(  136) = (   0.3636364   0.4545455   0.1666667), wk =   0.0110193
        k(  137) = (   0.3636364   0.4545455   0.2500000), wk =   0.0110193
        k(  138) = (   0.3636364   0.4545455   0.3333333), wk =   0.0110193
        k(  139) = (   0.3636364   0.4545455   0.4166667), wk =   0.0110193
        k(  140) = (   0.3636364   0.4545455  -0.5000000), wk =   0.0055096
        k(  141) = (   0.4545455   0.4545455   0.0000000), wk =   0.0027548
        k(  142) = (   0.4545455   0.4545455   0.0833333), wk =   0.0055096
        k(  143) = (   0.4545455   0.4545455   0.1666667), wk =   0.0055096
        k(  144) = (   0.4545455   0.4545455   0.2500000), wk =   0.0055096
        k(  145) = (   0.4545455   0.4545455   0.3333333), wk =   0.0055096
        k(  146) = (   0.4545455   0.4545455   0.4166667), wk =   0.0055096
        k(  147) = (   0.4545455   0.4545455  -0.5000000), wk =   0.0027548

     Check: negative core charge=   -0.000003
     Generating pointlists ...
     new r_m :   0.3533 (alat units)  2.5701 (a.u.) for type    1
     new r_m :   0.3533 (alat units)  2.5701 (a.u.) for type    2

     Initial potential from superposition of free atoms

     starting charge   31.49958, renormalised to   32.00000

     negative rho (up, down):  1.219E-01 6.384E-02
     Starting wfcs are   25 randomized atomic wfcs
     Checking if some PAW data can be deallocated...

     Self-consistent Calculation

     iteration #  1     ecut=    90.00 Ry     beta= 0.40
     Davidson diagonalization with overlap

     ethr =  1.00E-02,  avg # of iterations =  2.0

     negative rho (up, down):  1.074E-01 6.795E-02

     total energy              =    -536.54951340 Ry
     estimated scf accuracy    <       1.63232686 Ry

     total magnetization       =     5.81 Bohr mag/cell
     absolute magnetization    =     5.96 Bohr mag/cell

[...]

     total energy              =    -537.13298828 Ry
     estimated scf accuracy    <          1.7E-09 Ry

[...]

     iteration # 19     ecut=    90.00 Ry     beta= 0.40
     Davidson diagonalization with overlap

     ethr =  5.32E-12,  avg # of iterations =  1.7

[...]

     Magnetic moment per site  (integrated on atomic sphere of radius R)
     atom   1 (R=0.353)  charge= 14.8395  magn=  3.6208
     atom   2 (R=0.353)  charge= 14.8744  magn=  0.2879

     End of self-consistent calculation

 ------ SPIN UP ------------

          k = 0.0000 0.0000 0.0000 (  5377 PWs)   bands (ev):

   -81.9368 -48.1009 -48.1009 -48.0983 -43.8048 -43.7913 -43.7913   2.0862
     3.7683   3.7696   4.4241   4.4517   4.4517   5.8063   5.8885   6.5902
     6.6152   6.6152  12.5597  12.5597

     occupation numbers
     1.0000   1.0000   1.0000   1.0000   1.0000   1.0000   1.0000   1.0000
     1.0000   1.0000   1.0000   1.0000   1.0000   1.0000   1.0000   1.0001
     1.0002   1.0002   0.0000   0.0000

[...]

 ------ SPIN DOWN ----------

[...]

          k = 0.4545 0.4545-0.5175 (  5388 PWs)   bands (ev):

[...]

     occupation numbers
     1.0000   1.0000   1.0000   1.0000   1.0000   1.0000   1.0000   1.0000
     1.0000   1.0000   1.0077   1.0089   1.0391   1.0827   1.0830   0.0000
     0.0000   0.0000   0.0000   0.0000

     the Fermi energy is     7.5522 ev

!    total energy              =    -537.13298828 Ry
     estimated scf accuracy    <          1.4E-10 Ry
     smearing contrib. (-TS)   =      -0.00359250 Ry
     internal energy E=F+TS    =    -537.12939578 Ry

     The total energy is F=E-TS. E is the sum of the following terms:
     one-electron contribution =    -247.44255546 Ry
     hartree contribution      =     134.01197514 Ry
     xc contribution           =     -90.58313791 Ry
     ewald contribution        =    -259.04891382 Ry
     one-center paw contrib.   =     -74.06676373 Ry
      -> PAW hartree energy AE =     196.87472236 Ry
      -> PAW hartree energy PS =    -196.01240985 Ry
      -> PAW xc energy AE      =    -108.47963464 Ry
      -> PAW xc energy PS      =      33.55055839 Ry
      -> total E_H with PAW    =     134.87428765 Ry
      -> total E_XC with PAW   =    -165.51221415 Ry

     total magnetization       =     3.87 Bohr mag/cell
     absolute magnetization    =     4.01 Bohr mag/cell

     convergence has been achieved in  19 iterations

     negative rho (up, down):  8.895E-02 8.647E-02

     Forces acting on atoms (cartesian axes, Ry/au):

     atom    1 type  1   force =     0.00000000    0.00000000    0.00000000
     atom    2 type  2   force =     0.00000000    0.00000000    0.00000000
     The non-local contrib.  to forces
     atom    1 type  1   force =     0.00000000    0.00000000    0.00000000
     atom    2 type  2   force =     0.00000000    0.00000000    0.00000000
     The ionic contribution  to forces
     atom    1 type  1   force =    -0.00000000   -0.00000000   -0.00000000
     atom    2 type  2   force =    -0.00000000   -0.00000000    0.00000000
     The local contribution  to forces
     atom    1 type  1   force =    -0.00000000   -0.00000000    0.00000000
     atom    2 type  2   force =     0.00000000    0.00000000    0.00000000
     The core correction contribution to forces
     atom    1 type  1   force =     0.00000000    0.00000000    0.00000000
     atom    2 type  2   force =     0.00000000    0.00000000   -0.00000000
     The Hubbard contrib.    to forces
     atom    1 type  1   force =     0.00000000    0.00000000    0.00000000
     atom    2 type  2   force =     0.00000000    0.00000000    0.00000000
     The SCF correction term to forces
     atom    1 type  1   force =    -0.00000000    0.00000000    0.00000000
     atom    2 type  2   force =     0.00000000   -0.00000000    0.00000000

     Total force =     0.000000     Total SCF correction =     0.000000

     Computing stress (Cartesian axis) and pressure

     negative rho (up, down):  8.895E-02 8.647E-02
          total   stress  (Ry/bohr**3)                   (kbar)     P=     -258.52
  -0.00174955   0.00000000   0.00000000         -257.37        0.00        0.00
   0.00000000  -0.00174955   0.00000000            0.00     -257.37        0.00
   0.00000000   0.00000000  -0.00177301            0.00        0.00     -260.82

     kinetic stress (kbar)  30338.56      0.00      0.00
                                0.00  30338.56      0.00
                                0.00      0.00  30329.05

     local   stress (kbar)   6149.76      0.00     -0.00
                                0.00   6149.76      0.00
                               -0.00      0.00   5758.90

     nonloc. stress (kbar) -12086.40      0.00      0.00
                                0.00 -12086.40      0.00
                                0.00      0.00 -12104.92

     hartree stress (kbar)  17603.90     -0.00     -0.00
                               -0.00  17603.90      0.00
                               -0.00      0.00  17771.99

     exc-cor stress (kbar)  10604.07     -0.00     -0.00
                               -0.00  10604.07     -0.00
                               -0.00     -0.00  10603.99

     corecor stress (kbar) -18647.62      0.00      0.00
                                0.00 -18647.62     -0.00
                                0.00     -0.00 -18647.68

     ewald   stress (kbar) -34219.64     -0.00     -0.00
                               -0.00 -34219.64     -0.00
                               -0.00     -0.00 -33972.15

     hubbard stress (kbar)      0.00      0.00      0.00
                                0.00      0.00      0.00
                                0.00      0.00      0.00

     DFT-D   stress (kbar)      0.00      0.00      0.00
                                0.00      0.00      0.00
                                0.00      0.00      0.00

     XDM     stress (kbar)      0.00      0.00      0.00
                                0.00      0.00      0.00
                                0.00      0.00      0.00

     dft-nl  stress (kbar)      0.00      0.00      0.00
                                0.00      0.00      0.00
                                0.00      0.00      0.00

     TS-vdW  stress (kbar)      0.00      0.00      0.00
                                0.00      0.00      0.00
                                0.00      0.00      0.00

[...]

                                0.00      0.00      0.00

     Writing output data file ./out/aiida.save/

     General routines
                                        0.02s GPU  (      48 calls)
                                       11.08s GPU  (   70836 calls)

     Parallel routines

     PAW routines

   This run was terminated on:   2:57:52  27Feb2025

   JOB DONE.
Warning: ieee_invalid is signaling
Warning: ieee_divide_by_zero is signaling
Warning: ieee_underflow is signaling
Warning: ieee_inexact is signaling
FORTRAN STOP