     Program PWSCF v.6.8 starts on 12Mar2025 at  3:23:25

     Reading input from fe/pwscf.in

     Current dimensions of program PWSCF are:
     Max number of different atomic species (ntypx) = 10
     Max number of k-points (npk) =  40000
     Max angular momentum in pseudopotentials (lmaxx) =  4
     file Fe.pbesol-spn-kjpaw_psl.0.2.1.UPF: wavefunction(s)  3D renormalized
     Found symmetry operation: I + ( -0.5000 -0.5000 -0.5000)
     This is a supercell, fractional translations are disabled
     Message from routine setup:
     using ibrav=0 with symmetry is DISCOURAGED, use correct ibrav instead

     Subspace diagonalization in iterative solution of the eigenvalue problem:
     a serial algorithm will be used

     Using Slab Decomposition

     bravais-lattice index     =            0
     lattice parameter (alat)  =       5.4046  a.u.
     unit-cell volume          =     157.8682 (a.u.)^3
     number of atoms/cell      =            2
     number of atomic types    =            1
     number of electrons       =        32.00
     number of Kohn-Sham states=           20
     kinetic-energy cutoff     =      90.0000  Ry
     charge density cutoff     =    1080.0000  Ry
     scf convergence threshold =      4.0E-10
     mixing beta               =       0.4000
     number of iterations used =            8  plain     mixing
     Exchange-correlation= SLA  PW   PSX  PSC
                           (   1   4  10   8   0   0   0)

     GPU acceleration is ACTIVE.

     GPU used by master process:

        Device Number: 0
        Device name: NVIDIA GeForce RTX 4090
        Compute capability : 89
        Ratio of single to double precision performance  : 64

     celldm(1)=   5.404617  celldm(2)=   0.000000  celldm(3)=   0.000000
     celldm(4)=   0.000000  celldm(5)=   0.000000  celldm(6)=   0.000000

     crystal axes: (cart. coord. in units of alat)
               a(1) = (   1.000000   0.000000   0.000000 )
               a(2) = (   0.000000   1.000000   0.000000 )
               a(3) = (   0.000000   0.000000   1.000000 )

     reciprocal axes: (cart. coord. in units 2 pi/alat)
               b(1) = (  1.000000  0.000000  0.000000 )
               b(2) = (  0.000000  1.000000  0.000000 )
               b(3) = (  0.000000  0.000000  1.000000 )

     PseudoPot. # 1 for Fe read from file:
     ./fe/pseudo/Fe.pbesol-spn-kjpaw_psl.0.2.1.UPF
     MD5 check sum: 4d7ec5aa2156491519a4322664fbbf52
     Pseudo is Projector augmented-wave + core cor, Zval = 16.0
     Generated using "atomic" code by A. Dal Corso  v.6.0 svn rev. 13079
     Shape of augmentation charge: PSQ
     Using radial grid of 1191 points,  6 beta functions with:
                l(1) =   0
                l(2) =   0
                l(3) =   1
                l(4) =   1
                l(5) =   2
                l(6) =   2
     Q(r) pseudized with 0 coefficients

     atomic species   valence    mass     pseudopotential
        Fe            16.00    55.84500     Fe( 1.00)

     Starting magnetic structure
     atomic species   magnetization
        Fe           0.313

     48 Sym. Ops., with inversion, found

                                    s                        frac. trans.

      isym =  1     identity

 cryst.   s( 1) = (     1          0          0      )
                  (     0          1          0      )
                  (     0          0          1      )

 cart.    s( 1) = (  1.0000000  0.0000000  0.0000000 )
                  (  0.0000000  1.0000000  0.0000000 )
                  (  0.0000000  0.0000000  1.0000000 )

      isym =  2     180 deg rotation - cart. axis [0,0,1]

[...]

 cryst.   s( 9) = (     0          0          1      )
                  (     0         -1          0      )
                  (     1          0          0      )

 cart.    s( 9) = (  0.0000000  0.0000000  1.0000000 )
                  (  0.0000000 -1.0000000  0.0000000 )
                  (  1.0000000  0.0000000  0.0000000 )

[...]

 cryst.   s(10) = (     0          0         -1      )
                  (     0         -1          0      )
                  (    -1          0          0      )

 cart.    s(10) = (  0.0000000  0.0000000 -1.0000000 )
                  (  0.0000000 -1.0000000  0.0000000 )
                  ( -1.0000000  0.0000000  0.0000000 )

[...]

      isym = 24     120 deg rotation - cart. axis [-1,-1,1]

[...]

      isym = 25     inversion

[...]

      isym = 26     inv. 180 deg rotation - cart. axis [0,0,1]

[...]

      isym = 48     inv. 120 deg rotation - cart. axis [-1,-1,1]

 cryst.   s(48) = (     0         -1          0      )
                  (     0          0          1      )
                  (     1          0          0      )

 cart.    s(48) = (  0.0000000  0.0000000  1.0000000 )
                  ( -1.0000000  0.0000000  0.0000000 )
                  (  0.0000000  1.0000000  0.0000000 )

   Cartesian axes

     site n.     atom                  positions (alat units)
         1           Fe  tau(   1) = (   0.0000000   0.0000000   0.0000000  )
         2           Fe  tau(   2) = (   0.5000000   0.5000000   0.5000000  )

   Crystallographic axes

     site n.     atom                  positions (cryst. coord.)
         1           Fe  tau(   1) = (  0.0000000  0.0000000  0.0000000  )
         2           Fe  tau(   2) = (  0.5000000  0.5000000  0.5000000  )

     number of k points=   364  Marzari-Vanderbilt smearing, width (Ry)=  0.0125
                       cart. coord. in units 2pi/alat
        k(    1) = (   0.0000000   0.0000000   0.0000000), wk =   0.0000939
        k(    2) = (   0.0000000   0.0000000   0.0454545), wk =   0.0005635
        k(    3) = (   0.0000000   0.0000000   0.0909091), wk =   0.0005635
        k(    4) = (   0.0000000   0.0000000   0.1363636), wk =   0.0005635
        k(    5) = (   0.0000000   0.0000000   0.1818182), wk =   0.0005635
        k(    6) = (   0.0000000   0.0000000   0.2272727), wk =   0.0005635
        k(    7) = (   0.0000000   0.0000000   0.2727273), wk =   0.0005635
        k(    8) = (   0.0000000   0.0000000   0.3181818), wk =   0.0005635
        k(    9) = (   0.0000000   0.0000000   0.3636364), wk =   0.0005635
        k(   10) = (   0.0000000   0.0000000   0.4090909), wk =   0.0005635
        k(   11) = (   0.0000000   0.0000000   0.4545455), wk =   0.0005635
        k(   12) = (   0.0000000   0.0000000  -0.5000000), wk =   0.0002817
        k(   13) = (   0.0000000   0.0454545   0.0454545), wk =   0.0011270
        k(   14) = (   0.0000000   0.0454545   0.0909091), wk =   0.0022539
        k(   15) = (   0.0000000   0.0454545   0.1363636), wk =   0.0022539
        k(   16) = (   0.0000000   0.0454545   0.1818182), wk =   0.0022539
        k(   17) = (   0.0000000   0.0454545   0.2272727), wk =   0.0022539
        k(   18) = (   0.0000000   0.0454545   0.2727273), wk =   0.0022539
        k(   19) = (   0.0000000   0.0454545   0.3181818), wk =   0.0022539
        k(   20) = (   0.0000000   0.0454545   0.3636364), wk =   0.0022539
        k(   21) = (   0.0000000   0.0454545   0.4090909), wk =   0.0022539
        k(   22) = (   0.0000000   0.0454545   0.4545455), wk =   0.0022539
        k(   23) = (   0.0000000   0.0454545  -0.5000000), wk =   0.0011270
        k(   24) = (   0.0000000   0.0909091   0.0909091), wk =   0.0011270
        k(   25) = (   0.0000000   0.0909091   0.1363636), wk =   0.0022539
        k(   26) = (   0.0000000   0.0909091   0.1818182), wk =   0.0022539
        k(   27) = (   0.0000000   0.0909091   0.2272727), wk =   0.0022539
        k(   28) = (   0.0000000   0.0909091   0.2727273), wk =   0.0022539
        k(   29) = (   0.0000000   0.0909091   0.3181818), wk =   0.0022539
        k(   30) = (   0.0000000   0.0909091   0.3636364), wk =   0.0022539
        k(   31) = (   0.0000000   0.0909091   0.4090909), wk =   0.0022539
        k(   32) = (   0.0000000   0.0909091   0.4545455), wk =   0.0022539
        k(   33) = (   0.0000000   0.0909091  -0.5000000), wk =   0.0011270
        k(   34) = (   0.0000000   0.1363636   0.1363636), wk =   0.0011270
        k(   35) = (   0.0000000   0.1363636   0.1818182), wk =   0.0022539
        k(   36) = (   0.0000000   0.1363636   0.2272727), wk =   0.0022539
        k(   37) = (   0.0000000   0.1363636   0.2727273), wk =   0.0022539
        k(   38) = (   0.0000000   0.1363636   0.3181818), wk =   0.0022539
        k(   39) = (   0.0000000   0.1363636   0.3636364), wk =   0.0022539
        k(   40) = (   0.0000000   0.1363636   0.4090909), wk =   0.0022539
        k(   41) = (   0.0000000   0.1363636   0.4545455), wk =   0.0022539
        k(   42) = (   0.0000000   0.1363636  -0.5000000), wk =   0.0011270
        k(   43) = (   0.0000000   0.1818182   0.1818182), wk =   0.0011270
        k(   44) = (   0.0000000   0.1818182   0.2272727), wk =   0.0022539
        k(   45) = (   0.0000000   0.1818182   0.2727273), wk =   0.0022539
        k(   46) = (   0.0000000   0.1818182   0.3181818), wk =   0.0022539
        k(   47) = (   0.0000000   0.1818182   0.3636364), wk =   0.0022539
        k(   48) = (   0.0000000   0.1818182   0.4090909), wk =   0.0022539
        k(   49) = (   0.0000000   0.1818182   0.4545455), wk =   0.0022539
        k(   50) = (   0.0000000   0.1818182  -0.5000000), wk =   0.0011270
        k(   51) = (   0.0000000   0.2272727   0.2272727), wk =   0.0011270
        k(   52) = (   0.0000000   0.2272727   0.2727273), wk =   0.0022539
        k(   53) = (   0.0000000   0.2272727   0.3181818), wk =   0.0022539
        k(   54) = (   0.0000000   0.2272727   0.3636364), wk =   0.0022539
        k(   55) = (   0.0000000   0.2272727   0.4090909), wk =   0.0022539
        k(   56) = (   0.0000000   0.2272727   0.4545455), wk =   0.0022539
        k(   57) = (   0.0000000   0.2272727  -0.5000000), wk =   0.0011270
        k(   58) = (   0.0000000   0.2727273   0.2727273), wk =   0.0011270
        k(   59) = (   0.0000000   0.2727273   0.3181818), wk =   0.0022539
        k(   60) = (   0.0000000   0.2727273   0.3636364), wk =   0.0022539
[...]
        k(  350) = (   0.3636364   0.4090909   0.4545455), wk =   0.0045079
        k(  351) = (   0.3636364   0.4090909  -0.5000000), wk =   0.0022539
        k(  352) = (   0.3636364   0.4545455   0.4545455), wk =   0.0022539
        k(  353) = (   0.3636364   0.4545455  -0.5000000), wk =   0.0022539
        k(  354) = (   0.3636364  -0.5000000  -0.5000000), wk =   0.0005635
        k(  355) = (   0.4090909   0.4090909   0.4090909), wk =   0.0007513
        k(  356) = (   0.4090909   0.4090909   0.4545455), wk =   0.0022539
        k(  357) = (   0.4090909   0.4090909  -0.5000000), wk =   0.0011270
        k(  358) = (   0.4090909   0.4545455   0.4545455), wk =   0.0022539
        k(  359) = (   0.4090909   0.4545455  -0.5000000), wk =   0.0022539
        k(  360) = (   0.4090909  -0.5000000  -0.5000000), wk =   0.0005635
        k(  361) = (   0.4545455   0.4545455   0.4545455), wk =   0.0007513
        k(  362) = (   0.4545455   0.4545455  -0.5000000), wk =   0.0011270
        k(  363) = (   0.4545455  -0.5000000  -0.5000000), wk =   0.0005635
        k(  364) = (  -0.5000000  -0.5000000  -0.5000000), wk =   0.0000939

                       cryst. coord.
        k(    1) = (   0.0000000   0.0000000   0.0000000), wk =   0.0000939
        k(    2) = (   0.0000000   0.0000000   0.0454545), wk =   0.0005635
        k(    3) = (   0.0000000   0.0000000   0.0909091), wk =   0.0005635
        k(    4) = (   0.0000000   0.0000000   0.1363636), wk =   0.0005635
        k(    5) = (   0.0000000   0.0000000   0.1818182), wk =   0.0005635
        k(    6) = (   0.0000000   0.0000000   0.2272727), wk =   0.0005635
        k(    7) = (   0.0000000   0.0000000   0.2727273), wk =   0.0005635
        k(    8) = (   0.0000000   0.0000000   0.3181818), wk =   0.0005635
        k(    9) = (   0.0000000   0.0000000   0.3636364), wk =   0.0005635
        k(   10) = (   0.0000000   0.0000000   0.4090909), wk =   0.0005635
        k(   11) = (   0.0000000   0.0000000   0.4545455), wk =   0.0005635
        k(   12) = (   0.0000000   0.0000000  -0.5000000), wk =   0.0002817
        k(   13) = (   0.0000000   0.0454545   0.0454545), wk =   0.0011270
        k(   14) = (   0.0000000   0.0454545   0.0909091), wk =   0.0022539
        k(   15) = (   0.0000000   0.0454545   0.1363636), wk =   0.0022539
        k(   16) = (   0.0000000   0.0454545   0.1818182), wk =   0.0022539
        k(   17) = (   0.0000000   0.0454545   0.2272727), wk =   0.0022539
        k(   18) = (   0.0000000   0.0454545   0.2727273), wk =   0.0022539
        k(   19) = (   0.0000000   0.0454545   0.3181818), wk =   0.0022539
        k(   20) = (   0.0000000   0.0454545   0.3636364), wk =   0.0022539
        k(   21) = (   0.0000000   0.0454545   0.4090909), wk =   0.0022539
        k(   22) = (   0.0000000   0.0454545   0.4545455), wk =   0.0022539
        k(   23) = (   0.0000000   0.0454545  -0.5000000), wk =   0.0011270
        k(   24) = (   0.0000000   0.0909091   0.0909091), wk =   0.0011270
        k(   25) = (   0.0000000   0.0909091   0.1363636), wk =   0.0022539
        k(   26) = (   0.0000000   0.0909091   0.1818182), wk =   0.0022539
        k(   27) = (   0.0000000   0.0909091   0.2272727), wk =   0.0022539
        k(   28) = (   0.0000000   0.0909091   0.2727273), wk =   0.0022539
        k(   29) = (   0.0000000   0.0909091   0.3181818), wk =   0.0022539
        k(   30) = (   0.0000000   0.0909091   0.3636364), wk =   0.0022539
        k(   31) = (   0.0000000   0.0909091   0.4090909), wk =   0.0022539
        k(   32) = (   0.0000000   0.0909091   0.4545455), wk =   0.0022539
        k(   33) = (   0.0000000   0.0909091  -0.5000000), wk =   0.0011270
        k(   34) = (   0.0000000   0.1363636   0.1363636), wk =   0.0011270
        k(   35) = (   0.0000000   0.1363636   0.1818182), wk =   0.0022539
        k(   36) = (   0.0000000   0.1363636   0.2272727), wk =   0.0022539
        k(   37) = (   0.0000000   0.1363636   0.2727273), wk =   0.0022539
        k(   38) = (   0.0000000   0.1363636   0.3181818), wk =   0.0022539
        k(   39) = (   0.0000000   0.1363636   0.3636364), wk =   0.0022539
        k(   40) = (   0.0000000   0.1363636   0.4090909), wk =   0.0022539
        k(   41) = (   0.0000000   0.1363636   0.4545455), wk =   0.0022539
        k(   42) = (   0.0000000   0.1363636  -0.5000000), wk =   0.0011270
        k(   43) = (   0.0000000   0.1818182   0.1818182), wk =   0.0011270
        k(   44) = (   0.0000000   0.1818182   0.2272727), wk =   0.0022539
        k(   45) = (   0.0000000   0.1818182   0.2727273), wk =   0.0022539
        k(   46) = (   0.0000000   0.1818182   0.3181818), wk =   0.0022539
        k(   47) = (   0.0000000   0.1818182   0.3636364), wk =   0.0022539
        k(   48) = (   0.0000000   0.1818182   0.4090909), wk =   0.0022539
        k(   49) = (   0.0000000   0.1818182   0.4545455), wk =   0.0022539
        k(   50) = (   0.0000000   0.1818182  -0.5000000), wk =   0.0011270
        k(   51) = (   0.0000000   0.2272727   0.2272727), wk =   0.0011270
        k(   52) = (   0.0000000   0.2272727   0.2727273), wk =   0.0022539
        k(   53) = (   0.0000000   0.2272727   0.3181818), wk =   0.0022539
        k(   54) = (   0.0000000   0.2272727   0.3636364), wk =   0.0022539
        k(   55) = (   0.0000000   0.2272727   0.4090909), wk =   0.0022539
        k(   56) = (   0.0000000   0.2272727   0.4545455), wk =   0.0022539
        k(   57) = (   0.0000000   0.2272727  -0.5000000), wk =   0.0011270
        k(   58) = (   0.0000000   0.2727273   0.2727273), wk =   0.0011270
        k(   59) = (   0.0000000   0.2727273   0.3181818), wk =   0.0022539
        k(   60) = (   0.0000000   0.2727273   0.3636364), wk =   0.0022539
[...]
        k(  350) = (   0.3636364   0.4090909   0.4545455), wk =   0.0045079
        k(  351) = (   0.3636364   0.4090909  -0.5000000), wk =   0.0022539
        k(  352) = (   0.3636364   0.4545455   0.4545455), wk =   0.0022539
        k(  353) = (   0.3636364   0.4545455  -0.5000000), wk =   0.0022539
        k(  354) = (   0.3636364  -0.5000000  -0.5000000), wk =   0.0005635
        k(  355) = (   0.4090909   0.4090909   0.4090909), wk =   0.0007513
        k(  356) = (   0.4090909   0.4090909   0.4545455), wk =   0.0022539
        k(  357) = (   0.4090909   0.4090909  -0.5000000), wk =   0.0011270
        k(  358) = (   0.4090909   0.4545455   0.4545455), wk =   0.0022539
        k(  359) = (   0.4090909   0.4545455  -0.5000000), wk =   0.0022539
        k(  360) = (   0.4090909  -0.5000000  -0.5000000), wk =   0.0005635
        k(  361) = (   0.4545455   0.4545455   0.4545455), wk =   0.0007513
        k(  362) = (   0.4545455   0.4545455  -0.5000000), wk =   0.0011270
        k(  363) = (   0.4545455  -0.5000000  -0.5000000), wk =   0.0005635
        k(  364) = (  -0.5000000  -0.5000000  -0.5000000), wk =   0.0000939

     Check: negative core charge=   -0.000010
     Generating pointlists ...
     new r_m :   0.3572 (alat units)  1.9307 (a.u.) for type    1

     Initial potential from superposition of free atoms

     starting charge   31.99919, renormalised to   32.00000
     Starting wfcs are   26 randomized atomic wfcs
     Checking if some PAW data can be deallocated...

     Self-consistent Calculation

     iteration #  1     ecut=    90.00 Ry     beta= 0.40
     Davidson diagonalization with overlap

     ethr =  1.00E-02,  avg # of iterations =  2.0

     Threshold (ethr) on eigenvalues was too large:
     Diagonalizing with lowered threshold

     Davidson diagonalization with overlap

[...]

     negative rho (up, down):  0.000E+00 1.433E-05

     total energy              =    -653.72610213 Ry
     estimated scf accuracy    <       0.23115504 Ry

     total magnetization       =     5.90 Bohr mag/cell
     absolute magnetization    =     5.98 Bohr mag/cell

[...]

     total energy              =    -653.82745506 Ry
     estimated scf accuracy    <          7.9E-10 Ry

[...]

     iteration # 21     ecut=    90.00 Ry     beta= 0.40
     Davidson diagonalization with overlap

     ethr =  1.77E-12,  avg # of iterations =  1.8

[...]

     Magnetic moment per site  (integrated on atomic sphere of radius R)
     atom   1 (R=0.357)  charge= 14.4114  magn=  2.2509
     atom   2 (R=0.357)  charge= 14.4114  magn=  2.2509

     End of self-consistent calculation

 ------ SPIN UP ------------

          k = 0.0000 0.0000 0.0000 (  2301 PWs)   bands (ev):

   -70.3215 -70.1981 -36.5418 -36.5418 -36.5418 -36.2686 -36.2686 -36.2686
     9.0283  12.7410  12.7410  15.1953  15.1953  15.1953  16.4017  16.4017
    17.5479  17.5479  17.5479  27.0220

     occupation numbers
     1.0000   1.0000   1.0000   1.0000   1.0000   1.0000   1.0000   1.0000
     1.0000   1.0000   1.0000   1.0000   1.0000   1.0000   1.0000   1.0000
     0.0961   0.0961   0.0961   0.0000

[...]

          k =-0.5000-0.5000-0.5000 (  2272 PWs)   bands (ev):

[...]

 ------ SPIN DOWN ----------

[...]

          k = 0.4545-0.5000-0.5000 (  2296 PWs)   bands (ev):

[...]

          k =-0.5000-0.5000-0.5000 (  2272 PWs)   bands (ev):

[...]

     occupation numbers
     1.0000   1.0000   1.0000   1.0000   1.0000   1.0000   1.0000   1.0000
     1.0000   1.0000   1.0000   1.0000   1.0000   1.0000   0.0000   0.0000
     0.0000   0.0000   0.0000   0.0000

     the Fermi energy is    17.4408 ev

!    total energy              =    -653.82745507 Ry

     total all-electron energy =     -5086.478877 Ry
     estimated scf accuracy    <          4.3E-11 Ry
     smearing contrib. (-TS)   =       0.00020686 Ry
     internal energy E=F+TS    =    -653.82766192 Ry

     The total energy is F=E-TS. E is the sum of the following terms:
     one-electron contribution =    -224.30419219 Ry
     hartree contribution      =     132.35973943 Ry
     xc contribution           =     -68.95946163 Ry
     ewald contribution        =    -344.75849517 Ry
     one-center paw contrib.   =    -148.16525235 Ry
      -> PAW hartree energy AE =     415.74666692 Ry
      -> PAW hartree energy PS =    -414.00582628 Ry
      -> PAW xc energy AE      =    -217.79514504 Ry
      -> PAW xc energy PS      =      67.88905204 Ry
      -> total E_H with PAW    =     134.10058007 Ry
      -> total E_XC with PAW   =    -218.86555463 Ry

     total magnetization       =     4.42 Bohr mag/cell
     absolute magnetization    =     4.63 Bohr mag/cell

     convergence has been achieved in  21 iterations

     negative rho (up, down):  0.000E+00 7.478E-05

     Forces acting on atoms (cartesian axes, Ry/au):

     atom    1 type  1   force =     0.00000000    0.00000000    0.00000000
     atom    2 type  1   force =     0.00000000    0.00000000    0.00000000
     The non-local contrib.  to forces
     atom    1 type  1   force =     0.00000000    0.00000000    0.00000000
     atom    2 type  1   force =     0.00000000    0.00000000    0.00000000
     The ionic contribution  to forces
     atom    1 type  1   force =    -0.00000000   -0.00000000   -0.00000000
     atom    2 type  1   force =     0.00000000    0.00000000    0.00000000
     The local contribution  to forces
     atom    1 type  1   force =     0.00000000   -0.00000000    0.00000000
     atom    2 type  1   force =     0.00000000    0.00000000    0.00000000
     The core correction contribution to forces
     atom    1 type  1   force =    -0.00000000   -0.00000000    0.00000000
     atom    2 type  1   force =    -0.00000000    0.00000000   -0.00000000
     The Hubbard contrib.    to forces
     atom    1 type  1   force =     0.00000000    0.00000000    0.00000000
     atom    2 type  1   force =     0.00000000    0.00000000    0.00000000
     The SCF correction term to forces
     atom    1 type  1   force =     0.00000000   -0.00000000   -0.00000000
     atom    2 type  1   force =    -0.00000000    0.00000000   -0.00000000

     Total force =     0.000000     Total SCF correction =     0.000000

     Computing stress (Cartesian axis) and pressure

     negative rho (up, down):  0.000E+00 7.478E-05
          total   stress  (Ry/bohr**3)                   (kbar)     P=     -143.22
  -0.00097358   0.00000000   0.00000000         -143.22        0.00        0.00
   0.00000000  -0.00097358   0.00000000            0.00     -143.22        0.00
   0.00000000   0.00000000  -0.00097358            0.00        0.00     -143.22

     kinetic stress (kbar)  79353.98      0.00      0.00
                                0.00  79353.98      0.00
                                0.00      0.00  79353.98

     local   stress (kbar)  66928.58     -0.00     -0.00
                               -0.00  66928.58      0.00
                               -0.00      0.00  66928.58

     nonloc. stress (kbar) -61872.82      0.00      0.00
                                0.00 -61872.82      0.00
                                0.00      0.00 -61872.82

     hartree stress (kbar)  41111.91      0.00      0.00
                                0.00  41111.91     -0.00
                                0.00     -0.00  41111.91

     exc-cor stress (kbar)  -2354.74     -0.00     -0.00
                               -0.00  -2354.74      0.00
                               -0.00      0.00  -2354.74

     corecor stress (kbar) -16225.59     -0.00      0.00
                               -0.00 -16225.59      0.00
                                0.00      0.00 -16225.59

     ewald   stress (kbar)-107084.53      0.00      0.00
                                0.00-107084.53      0.00
                                0.00      0.00-107084.53

     hubbard stress (kbar)      0.00      0.00      0.00
                                0.00      0.00      0.00
                                0.00      0.00      0.00

     DFT-D   stress (kbar)      0.00      0.00      0.00
                                0.00      0.00      0.00
                                0.00      0.00      0.00

     XDM     stress (kbar)      0.00      0.00      0.00
                                0.00      0.00      0.00
                                0.00      0.00      0.00

     dft-nl  stress (kbar)      0.00      0.00      0.00
                                0.00      0.00      0.00
                                0.00      0.00      0.00

     TS-vdW  stress (kbar)      0.00      0.00      0.00
                                0.00      0.00      0.00
                                0.00      0.00      0.00

[...]

                                0.00      0.00      0.00

     Writing output data file ./fe/out/aiida.save/

     General routines
                                        0.03s GPU  (      52 calls)
                                       15.21s GPU  (  213826 calls)

     Parallel routines

     PAW routines

   This run was terminated on:   3:26:20  12Mar2025

   JOB DONE.
Warning: ieee_invalid is signaling
Warning: ieee_divide_by_zero is signaling
Warning: ieee_underflow is signaling
Warning: ieee_inexact is signaling
FORTRAN STOP