     Program PWSCF v.6.8 starts on 28Feb2025 at  5:35:16

     Reading input from fenipt/pwscf.in

     Current dimensions of program PWSCF are:
     Max number of different atomic species (ntypx) = 10
     Max number of k-points (npk) =  40000
     Max angular momentum in pseudopotentials (lmaxx) =  4
     file Fe.pbesol-spn-kjpaw_psl.0.2.1.UPF: wavefunction(s)  3D renormalized
     Message from routine setup:
     using ibrav=0 with symmetry is DISCOURAGED, use correct ibrav instead

     Subspace diagonalization in iterative solution of the eigenvalue problem:
     a serial algorithm will be used

     Using Slab Decomposition

     bravais-lattice index     =            0
     lattice parameter (alat)  =       7.2943  a.u.
     unit-cell volume          =     365.9928 (a.u.)^3
     number of atoms/cell      =            4
     number of atomic types    =            3
     number of electrons       =        66.00
     number of Kohn-Sham states=           40
     kinetic-energy cutoff     =      90.0000  Ry
     charge density cutoff     =    1080.0000  Ry
     scf convergence threshold =      8.0E-10
     mixing beta               =       0.4000
     number of iterations used =            8  plain     mixing
     Exchange-correlation= SLA  PW   PSX  PSC
                           (   1   4  10   8   0   0   0)

     GPU acceleration is ACTIVE.

     GPU used by master process:

        Device Number: 0
        Device name: NVIDIA GeForce RTX 4090
        Compute capability : 89
        Ratio of single to double precision performance  : 64

     celldm(1)=   7.294343  celldm(2)=   0.000000  celldm(3)=   0.000000
     celldm(4)=   0.000000  celldm(5)=   0.000000  celldm(6)=   0.000000

     crystal axes: (cart. coord. in units of alat)
               a(1) = (   1.000000   0.000000   0.000000 )
               a(2) = (   0.000000   1.000000   0.000000 )
               a(3) = (   0.000000   0.000000   0.943005 )

     reciprocal axes: (cart. coord. in units 2 pi/alat)
               b(1) = (  1.000000  0.000000  0.000000 )
               b(2) = (  0.000000  1.000000  0.000000 )
               b(3) = (  0.000000  0.000000  1.060440 )

     PseudoPot. # 1 for Fe read from file:
     ./fenipt/pseudo/Fe.pbesol-spn-kjpaw_psl.0.2.1.UPF
     MD5 check sum: 4d7ec5aa2156491519a4322664fbbf52
     Pseudo is Projector augmented-wave + core cor, Zval = 16.0
     Generated using "atomic" code by A. Dal Corso  v.6.0 svn rev. 13079
     Shape of augmentation charge: PSQ
     Using radial grid of 1191 points,  6 beta functions with:
                l(1) =   0
                l(2) =   0
                l(3) =   1
                l(4) =   1
                l(5) =   2
                l(6) =   2
     Q(r) pseudized with 0 coefficients

     PseudoPot. # 2 for Ni read from file:
     ./fenipt/pseudo/ni_pbesol_v1.4.uspp.F.UPF
     MD5 check sum: de937c0c8ae4b350e69c02b76d8a83cb
     Pseudo is Ultrasoft + core correction, Zval = 18.0
     Generated by new atomic code, or converted to UPF format
     Using radial grid of  865 points,  6 beta functions with:
                l(1) =   0
                l(2) =   0
                l(3) =   1
                l(4) =   1
                l(5) =   2
                l(6) =   2
     Q(r) pseudized with 10 coefficients,  rinner =    0.980   0.980   0.980
                                                       0.980   0.980

     PseudoPot. # 3 for Pt read from file:
     ./fenipt/pseudo/pt_pbesol_v1.4.uspp.F.UPF
     MD5 check sum: d14d547907f752a992688280a7473f8c
     Pseudo is Ultrasoft + core correction, Zval = 16.0
     Generated by new atomic code, or converted to UPF format
     Using radial grid of  985 points,  6 beta functions with:
                l(1) =   0
                l(2) =   0
                l(3) =   1
                l(4) =   1
                l(5) =   2
                l(6) =   2
     Q(r) pseudized with  8 coefficients,  rinner =    1.300   1.300   1.300
                                                       1.300   1.300

     atomic species   valence    mass     pseudopotential
        Fe            16.00    55.84500     Fe( 1.00)
        Ni            18.00    58.69340     Ni( 1.00)
        Pt            16.00   195.08400     Pt( 1.00)

     Starting magnetic structure
     atomic species   magnetization
        Fe           0.313
        Ni           0.278
        Pt           0.313

     16 Sym. Ops., with inversion, found

                                    s                        frac. trans.

      isym =  1     identity

 cryst.   s( 1) = (     1          0          0      )
                  (     0          1          0      )
                  (     0          0          1      )

 cart.    s( 1) = (  1.0000000  0.0000000  0.0000000 )
                  (  0.0000000  1.0000000  0.0000000 )
                  (  0.0000000  0.0000000  1.0000000 )

      isym =  2     180 deg rotation - cart. axis [0,0,1]

[...]

      isym =  8      90 deg rotation - cart. axis [0,0,1]

[...]

      isym =  9     inversion

 cryst.   s( 9) = (    -1          0          0      )
                  (     0         -1          0      )
                  (     0          0         -1      )

 cart.    s( 9) = ( -1.0000000  0.0000000  0.0000000 )
                  (  0.0000000 -1.0000000  0.0000000 )
                  (  0.0000000  0.0000000 -1.0000000 )

      isym = 10     inv. 180 deg rotation - cart. axis [0,0,1]

 cryst.   s(10) = (     1          0          0      )
                  (     0          1          0      )
                  (     0          0         -1      )

 cart.    s(10) = (  1.0000000  0.0000000  0.0000000 )
                  (  0.0000000  1.0000000  0.0000000 )
                  (  0.0000000  0.0000000 -1.0000000 )

[...]

      isym = 16     inv.  90 deg rotation - cart. axis [0,0,1]

 cryst.   s(16) = (     0         -1          0      )
                  (     1          0          0      )
                  (     0          0         -1      )

 cart.    s(16) = (  0.0000000  1.0000000  0.0000000 )
                  ( -1.0000000  0.0000000  0.0000000 )
                  (  0.0000000  0.0000000 -1.0000000 )

   Cartesian axes

     site n.     atom                  positions (alat units)
         1           Fe  tau(   1) = (   0.0000000   0.0000000   0.0000000  )
         2           Ni  tau(   2) = (   0.5000000   0.5000000   0.0000000  )
         3           Pt  tau(   3) = (   0.0000000   0.5000000   0.4715026  )
         4           Pt  tau(   4) = (   0.5000000   0.0000000   0.4715026  )

   Crystallographic axes

     site n.     atom                  positions (cryst. coord.)
         1           Fe  tau(   1) = (  0.0000000  0.0000000  0.0000000  )
         2           Ni  tau(   2) = (  0.5000000  0.5000000  0.0000000  )
         3           Pt  tau(   3) = (  0.0000000  0.5000000  0.5000000  )
         4           Pt  tau(   4) = (  0.5000000  0.0000000  0.5000000  )

     number of k points=   450  Marzari-Vanderbilt smearing, width (Ry)=  0.0125
                       cart. coord. in units 2pi/alat
        k(    1) = (   0.0000000   0.0000000   0.0000000), wk =   0.0001922
        k(    2) = (   0.0000000   0.0000000   0.0589133), wk =   0.0003845
        k(    3) = (   0.0000000   0.0000000   0.1178266), wk =   0.0003845
        k(    4) = (   0.0000000   0.0000000   0.1767399), wk =   0.0003845
        k(    5) = (   0.0000000   0.0000000   0.2356532), wk =   0.0003845
        k(    6) = (   0.0000000   0.0000000   0.2945665), wk =   0.0003845
        k(    7) = (   0.0000000   0.0000000   0.3534799), wk =   0.0003845
        k(    8) = (   0.0000000   0.0000000   0.4123932), wk =   0.0003845
        k(    9) = (   0.0000000   0.0000000   0.4713065), wk =   0.0003845
        k(   10) = (   0.0000000   0.0000000  -0.5302198), wk =   0.0001922
        k(   11) = (   0.0000000   0.0588235   0.0000000), wk =   0.0007689
        k(   12) = (   0.0000000   0.0588235   0.0589133), wk =   0.0015379
        k(   13) = (   0.0000000   0.0588235   0.1178266), wk =   0.0015379
        k(   14) = (   0.0000000   0.0588235   0.1767399), wk =   0.0015379
        k(   15) = (   0.0000000   0.0588235   0.2356532), wk =   0.0015379
        k(   16) = (   0.0000000   0.0588235   0.2945665), wk =   0.0015379
        k(   17) = (   0.0000000   0.0588235   0.3534799), wk =   0.0015379
        k(   18) = (   0.0000000   0.0588235   0.4123932), wk =   0.0015379
        k(   19) = (   0.0000000   0.0588235   0.4713065), wk =   0.0015379
        k(   20) = (   0.0000000   0.0588235  -0.5302198), wk =   0.0007689
        k(   21) = (   0.0000000   0.1176471   0.0000000), wk =   0.0007689
        k(   22) = (   0.0000000   0.1176471   0.0589133), wk =   0.0015379
        k(   23) = (   0.0000000   0.1176471   0.1178266), wk =   0.0015379
        k(   24) = (   0.0000000   0.1176471   0.1767399), wk =   0.0015379
        k(   25) = (   0.0000000   0.1176471   0.2356532), wk =   0.0015379
        k(   26) = (   0.0000000   0.1176471   0.2945665), wk =   0.0015379
        k(   27) = (   0.0000000   0.1176471   0.3534799), wk =   0.0015379
        k(   28) = (   0.0000000   0.1176471   0.4123932), wk =   0.0015379
        k(   29) = (   0.0000000   0.1176471   0.4713065), wk =   0.0015379
        k(   30) = (   0.0000000   0.1176471  -0.5302198), wk =   0.0007689
        k(   31) = (   0.0000000   0.1764706   0.0000000), wk =   0.0007689
        k(   32) = (   0.0000000   0.1764706   0.0589133), wk =   0.0015379
        k(   33) = (   0.0000000   0.1764706   0.1178266), wk =   0.0015379
        k(   34) = (   0.0000000   0.1764706   0.1767399), wk =   0.0015379
        k(   35) = (   0.0000000   0.1764706   0.2356532), wk =   0.0015379
        k(   36) = (   0.0000000   0.1764706   0.2945665), wk =   0.0015379
        k(   37) = (   0.0000000   0.1764706   0.3534799), wk =   0.0015379
        k(   38) = (   0.0000000   0.1764706   0.4123932), wk =   0.0015379
        k(   39) = (   0.0000000   0.1764706   0.4713065), wk =   0.0015379
        k(   40) = (   0.0000000   0.1764706  -0.5302198), wk =   0.0007689
        k(   41) = (   0.0000000   0.2352941   0.0000000), wk =   0.0007689
        k(   42) = (   0.0000000   0.2352941   0.0589133), wk =   0.0015379
        k(   43) = (   0.0000000   0.2352941   0.1178266), wk =   0.0015379
        k(   44) = (   0.0000000   0.2352941   0.1767399), wk =   0.0015379
        k(   45) = (   0.0000000   0.2352941   0.2356532), wk =   0.0015379
        k(   46) = (   0.0000000   0.2352941   0.2945665), wk =   0.0015379
        k(   47) = (   0.0000000   0.2352941   0.3534799), wk =   0.0015379
        k(   48) = (   0.0000000   0.2352941   0.4123932), wk =   0.0015379
        k(   49) = (   0.0000000   0.2352941   0.4713065), wk =   0.0015379
        k(   50) = (   0.0000000   0.2352941  -0.5302198), wk =   0.0007689
        k(   51) = (   0.0000000   0.2941176   0.0000000), wk =   0.0007689
        k(   52) = (   0.0000000   0.2941176   0.0589133), wk =   0.0015379
        k(   53) = (   0.0000000   0.2941176   0.1178266), wk =   0.0015379
        k(   54) = (   0.0000000   0.2941176   0.1767399), wk =   0.0015379
[...]
        k(   58) = (   0.0000000   0.2941176   0.4123932), wk =   0.0015379
        k(   59) = (   0.0000000   0.2941176   0.4713065), wk =   0.0015379
        k(   60) = (   0.0000000   0.2941176  -0.5302198), wk =   0.0007689
[...]
        k(  436) = (   0.4117647   0.4705882   0.2945665), wk =   0.0030757
        k(  437) = (   0.4117647   0.4705882   0.3534799), wk =   0.0030757
        k(  438) = (   0.4117647   0.4705882   0.4123932), wk =   0.0030757
        k(  439) = (   0.4117647   0.4705882   0.4713065), wk =   0.0030757
        k(  440) = (   0.4117647   0.4705882  -0.5302198), wk =   0.0015379
        k(  441) = (   0.4705882   0.4705882   0.0000000), wk =   0.0007689
        k(  442) = (   0.4705882   0.4705882   0.0589133), wk =   0.0015379
        k(  443) = (   0.4705882   0.4705882   0.1178266), wk =   0.0015379
        k(  444) = (   0.4705882   0.4705882   0.1767399), wk =   0.0015379
        k(  445) = (   0.4705882   0.4705882   0.2356532), wk =   0.0015379
        k(  446) = (   0.4705882   0.4705882   0.2945665), wk =   0.0015379
        k(  447) = (   0.4705882   0.4705882   0.3534799), wk =   0.0015379
        k(  448) = (   0.4705882   0.4705882   0.4123932), wk =   0.0015379
        k(  449) = (   0.4705882   0.4705882   0.4713065), wk =   0.0015379
        k(  450) = (   0.4705882   0.4705882  -0.5302198), wk =   0.0007689

                       cryst. coord.
        k(    1) = (   0.0000000   0.0000000   0.0000000), wk =   0.0001922
        k(    2) = (   0.0000000   0.0000000   0.0555556), wk =   0.0003845
        k(    3) = (   0.0000000   0.0000000   0.1111111), wk =   0.0003845
        k(    4) = (   0.0000000   0.0000000   0.1666667), wk =   0.0003845
        k(    5) = (   0.0000000   0.0000000   0.2222222), wk =   0.0003845
        k(    6) = (   0.0000000   0.0000000   0.2777778), wk =   0.0003845
        k(    7) = (   0.0000000   0.0000000   0.3333333), wk =   0.0003845
        k(    8) = (   0.0000000   0.0000000   0.3888889), wk =   0.0003845
        k(    9) = (   0.0000000   0.0000000   0.4444444), wk =   0.0003845
        k(   10) = (   0.0000000   0.0000000  -0.5000000), wk =   0.0001922
        k(   11) = (   0.0000000   0.0588235   0.0000000), wk =   0.0007689
        k(   12) = (   0.0000000   0.0588235   0.0555556), wk =   0.0015379
        k(   13) = (   0.0000000   0.0588235   0.1111111), wk =   0.0015379
        k(   14) = (   0.0000000   0.0588235   0.1666667), wk =   0.0015379
        k(   15) = (   0.0000000   0.0588235   0.2222222), wk =   0.0015379
        k(   16) = (   0.0000000   0.0588235   0.2777778), wk =   0.0015379
        k(   17) = (   0.0000000   0.0588235   0.3333333), wk =   0.0015379
        k(   18) = (   0.0000000   0.0588235   0.3888889), wk =   0.0015379
        k(   19) = (   0.0000000   0.0588235   0.4444444), wk =   0.0015379
        k(   20) = (   0.0000000   0.0588235  -0.5000000), wk =   0.0007689
        k(   21) = (   0.0000000   0.1176471   0.0000000), wk =   0.0007689
        k(   22) = (   0.0000000   0.1176471   0.0555556), wk =   0.0015379
        k(   23) = (   0.0000000   0.1176471   0.1111111), wk =   0.0015379
        k(   24) = (   0.0000000   0.1176471   0.1666667), wk =   0.0015379
        k(   25) = (   0.0000000   0.1176471   0.2222222), wk =   0.0015379
        k(   26) = (   0.0000000   0.1176471   0.2777778), wk =   0.0015379
        k(   27) = (   0.0000000   0.1176471   0.3333333), wk =   0.0015379
        k(   28) = (   0.0000000   0.1176471   0.3888889), wk =   0.0015379
        k(   29) = (   0.0000000   0.1176471   0.4444444), wk =   0.0015379
        k(   30) = (   0.0000000   0.1176471  -0.5000000), wk =   0.0007689
        k(   31) = (   0.0000000   0.1764706   0.0000000), wk =   0.0007689
        k(   32) = (   0.0000000   0.1764706   0.0555556), wk =   0.0015379
        k(   33) = (   0.0000000   0.1764706   0.1111111), wk =   0.0015379
        k(   34) = (   0.0000000   0.1764706   0.1666667), wk =   0.0015379
        k(   35) = (   0.0000000   0.1764706   0.2222222), wk =   0.0015379
        k(   36) = (   0.0000000   0.1764706   0.2777778), wk =   0.0015379
        k(   37) = (   0.0000000   0.1764706   0.3333333), wk =   0.0015379
        k(   38) = (   0.0000000   0.1764706   0.3888889), wk =   0.0015379
        k(   39) = (   0.0000000   0.1764706   0.4444444), wk =   0.0015379
        k(   40) = (   0.0000000   0.1764706  -0.5000000), wk =   0.0007689
        k(   41) = (   0.0000000   0.2352941   0.0000000), wk =   0.0007689
        k(   42) = (   0.0000000   0.2352941   0.0555556), wk =   0.0015379
        k(   43) = (   0.0000000   0.2352941   0.1111111), wk =   0.0015379
        k(   44) = (   0.0000000   0.2352941   0.1666667), wk =   0.0015379
        k(   45) = (   0.0000000   0.2352941   0.2222222), wk =   0.0015379
        k(   46) = (   0.0000000   0.2352941   0.2777778), wk =   0.0015379
        k(   47) = (   0.0000000   0.2352941   0.3333333), wk =   0.0015379
        k(   48) = (   0.0000000   0.2352941   0.3888889), wk =   0.0015379
        k(   49) = (   0.0000000   0.2352941   0.4444444), wk =   0.0015379
        k(   50) = (   0.0000000   0.2352941  -0.5000000), wk =   0.0007689
        k(   51) = (   0.0000000   0.2941176   0.0000000), wk =   0.0007689
        k(   52) = (   0.0000000   0.2941176   0.0555556), wk =   0.0015379
        k(   53) = (   0.0000000   0.2941176   0.1111111), wk =   0.0015379
        k(   54) = (   0.0000000   0.2941176   0.1666667), wk =   0.0015379
        k(   55) = (   0.0000000   0.2941176   0.2222222), wk =   0.0015379
        k(   56) = (   0.0000000   0.2941176   0.2777778), wk =   0.0015379
        k(   57) = (   0.0000000   0.2941176   0.3333333), wk =   0.0015379
        k(   58) = (   0.0000000   0.2941176   0.3888889), wk =   0.0015379
        k(   59) = (   0.0000000   0.2941176   0.4444444), wk =   0.0015379
        k(   60) = (   0.0000000   0.2941176  -0.5000000), wk =   0.0007689
[...]
        k(  436) = (   0.4117647   0.4705882   0.2777778), wk =   0.0030757
        k(  437) = (   0.4117647   0.4705882   0.3333333), wk =   0.0030757
        k(  438) = (   0.4117647   0.4705882   0.3888889), wk =   0.0030757
        k(  439) = (   0.4117647   0.4705882   0.4444444), wk =   0.0030757
        k(  440) = (   0.4117647   0.4705882  -0.5000000), wk =   0.0015379
        k(  441) = (   0.4705882   0.4705882   0.0000000), wk =   0.0007689
        k(  442) = (   0.4705882   0.4705882   0.0555556), wk =   0.0015379
        k(  443) = (   0.4705882   0.4705882   0.1111111), wk =   0.0015379
        k(  444) = (   0.4705882   0.4705882   0.1666667), wk =   0.0015379
        k(  445) = (   0.4705882   0.4705882   0.2222222), wk =   0.0015379
        k(  446) = (   0.4705882   0.4705882   0.2777778), wk =   0.0015379
        k(  447) = (   0.4705882   0.4705882   0.3333333), wk =   0.0015379
        k(  448) = (   0.4705882   0.4705882   0.3888889), wk =   0.0015379
        k(  449) = (   0.4705882   0.4705882   0.4444444), wk =   0.0015379
        k(  450) = (   0.4705882   0.4705882  -0.5000000), wk =   0.0007689

     Check: negative core charge=   -0.000004
     Generating pointlists ...
     new r_m :   0.2835 (alat units)  2.0679 (a.u.) for type    1
     new r_m :   0.2835 (alat units)  2.0679 (a.u.) for type    2
     new r_m :   0.2835 (alat units)  2.0679 (a.u.) for type    3

     Initial potential from superposition of free atoms

     starting charge   62.99957, renormalised to   66.00000

     negative rho (up, down):  2.499E-01 1.309E-01
     Starting wfcs are   50 randomized atomic wfcs
     Checking if some PAW data can be deallocated...

     Self-consistent Calculation

     iteration #  1     ecut=    90.00 Ry     beta= 0.40
     Davidson diagonalization with overlap

     ethr =  1.00E-02,  avg # of iterations =  2.1

     negative rho (up, down):  2.164E-01 1.381E-01

     total energy              =   -1087.95422266 Ry
     estimated scf accuracy    <      11.43978678 Ry

     total magnetization       =     7.12 Bohr mag/cell
     absolute magnetization    =     7.41 Bohr mag/cell

[...]

     total energy              =   -1091.16949168 Ry
     estimated scf accuracy    <       0.00000002 Ry

[...]

     iteration # 16     ecut=    90.00 Ry     beta= 0.40
     Davidson diagonalization with overlap

     ethr =  3.46E-11,  avg # of iterations =  1.9

[...]

     Magnetic moment per site  (integrated on atomic sphere of radius R)
     atom   1 (R=0.283)  charge= 14.6297  magn=  3.1865
     atom   2 (R=0.283)  charge= 16.9941  magn=  0.8536
     atom   3 (R=0.283)  charge= 13.6943  magn=  0.4133
     atom   4 (R=0.283)  charge= 13.6943  magn=  0.4133

     End of self-consistent calculation

 ------ SPIN UP ------------

          k = 0.0000 0.0000 0.0000 (  5253 PWs)   bands (ev):

   -83.5474 -69.2519 -44.0783 -44.0783 -44.0716 -35.4204 -35.4204 -35.4130
   -33.2181 -33.2181 -33.0477 -33.0005 -32.9544 -32.9544  10.1019  12.9043
    13.6493  13.6728  14.1242  14.1842  14.1842  16.4716  16.4716  16.8545
    17.7003  17.9170  18.6260  18.8657  19.2962  19.3302  19.3302  19.4607
    19.5818  19.5818  20.4242  21.2321  21.2321  22.4433  27.2892  29.3771

     occupation numbers
     1.0000   1.0000   1.0000   1.0000   1.0000   1.0000   1.0000   1.0000
     1.0000   1.0000   1.0000   1.0000   1.0000   1.0000   1.0000   1.0000
     1.0000   1.0000   1.0000   1.0000   1.0000   1.0000   1.0000   1.0000
     1.0000   1.0000   1.0000   1.0000   1.0000   1.0000   1.0000   1.0016
     1.0209   1.0209   0.0000   0.0000   0.0000   0.0000   0.0000   0.0000

[...]

 ------ SPIN DOWN ----------

[...]

          k = 0.4706 0.4706-0.5302 (  5270 PWs)   bands (ev):

[...]

     occupation numbers
     1.0000   1.0000   1.0000   1.0000   1.0000   1.0000   1.0000   1.0000
     1.0000   1.0000   1.0000   1.0000   1.0000   1.0000   1.0000   1.0000
     1.0000   1.0000   1.0000   1.0000   1.0000   1.0000   1.0000   1.0000
     1.0000   1.0000   1.0000   1.0000   1.0000   1.0002   0.0290   0.0030
     0.0001   0.0000   0.0000   0.0000   0.0000   0.0000   0.0000   0.0000

     the Fermi energy is    19.9686 ev

!    total energy              =   -1091.16949168 Ry
     estimated scf accuracy    <          5.3E-10 Ry
     smearing contrib. (-TS)   =      -0.00048981 Ry
     internal energy E=F+TS    =   -1091.16900188 Ry

     The total energy is F=E-TS. E is the sum of the following terms:
     one-electron contribution =    -369.97902128 Ry
     hartree contribution      =     234.88597435 Ry
     xc contribution           =    -183.06445517 Ry
     ewald contribution        =    -698.93159656 Ry
     one-center paw contrib.   =     -74.07990321 Ry
      -> PAW hartree energy AE =     203.70761328 Ry
      -> PAW hartree energy PS =    -202.83735426 Ry
      -> PAW xc energy AE      =    -108.76898369 Ry
      -> PAW xc energy PS      =      33.81882146 Ry
      -> total E_H with PAW    =     235.75623338 Ry
      -> total E_XC with PAW   =    -258.01461740 Ry

     total magnetization       =     4.80 Bohr mag/cell
     absolute magnetization    =     5.06 Bohr mag/cell

     convergence has been achieved in  16 iterations

     negative rho (up, down):  1.763E-01 1.690E-01

     Forces acting on atoms (cartesian axes, Ry/au):

     atom    1 type  1   force =     0.00000000    0.00000000    0.00000000
     atom    2 type  2   force =     0.00000000    0.00000000    0.00000000
     atom    3 type  3   force =     0.00000000    0.00000000    0.00000000
     atom    4 type  3   force =     0.00000000    0.00000000    0.00000000
     The non-local contrib.  to forces
     atom    1 type  1   force =     0.00000000    0.00000000    0.00000000
     atom    2 type  2   force =     0.00000000    0.00000000    0.00000000
     atom    3 type  3   force =     0.00000000    0.00000000    0.00000000
     atom    4 type  3   force =     0.00000000    0.00000000    0.00000000
     The ionic contribution  to forces
     atom    1 type  1   force =    -0.00000000   -0.00000000   -0.00000000
     atom    2 type  2   force =     0.00000000    0.00000000   -0.00000000
     atom    3 type  3   force =    -0.00000000   -0.00000000    0.00000000
     atom    4 type  3   force =    -0.00000000   -0.00000000    0.00000000
     The local contribution  to forces
     atom    1 type  1   force =    -0.00000000   -0.00000000    0.00000000
     atom    2 type  2   force =     0.00000000    0.00000000    0.00000000
     atom    3 type  3   force =    -0.00000000    0.00000000    0.00000000
     atom    4 type  3   force =     0.00000000   -0.00000000    0.00000000
     The core correction contribution to forces
     atom    1 type  1   force =     0.00000000   -0.00000000    0.00000000
     atom    2 type  2   force =     0.00000000    0.00000000    0.00000000
     atom    3 type  3   force =    -0.00000000    0.00000000   -0.00000000
     atom    4 type  3   force =     0.00000000   -0.00000000   -0.00000000
     The Hubbard contrib.    to forces
     atom    1 type  1   force =     0.00000000    0.00000000    0.00000000
     atom    2 type  2   force =     0.00000000    0.00000000    0.00000000
     atom    3 type  3   force =     0.00000000    0.00000000    0.00000000
     atom    4 type  3   force =     0.00000000    0.00000000    0.00000000
     The SCF correction term to forces
     atom    1 type  1   force =     0.00000000   -0.00000000   -0.00000000
     atom    2 type  2   force =    -0.00000000    0.00000000    0.00000000
     atom    3 type  3   force =    -0.00000000   -0.00000000   -0.00000000
     atom    4 type  3   force =    -0.00000000   -0.00000000    0.00000000

     Total force =     0.000000     Total SCF correction =     0.000000

     Computing stress (Cartesian axis) and pressure

     negative rho (up, down):  1.763E-01 1.690E-01
          total   stress  (Ry/bohr**3)                   (kbar)     P=      -64.38
  -0.00047395   0.00000000   0.00000000          -69.72        0.00        0.00
   0.00000000  -0.00047395   0.00000000            0.00      -69.72        0.00
   0.00000000   0.00000000  -0.00036497            0.00        0.00      -53.69

     kinetic stress (kbar)  59702.48      0.00      0.00
                                0.00  59702.48      0.00
                                0.00      0.00  59811.00

     local   stress (kbar)  26879.16     -0.00      0.00
                               -0.00  26879.16      0.00
                                0.00      0.00  26328.60

     nonloc. stress (kbar)  -7422.12      0.00      0.00
                                0.00  -7422.12      0.00
                                0.00      0.00  -7349.95

     hartree stress (kbar)  31486.32      0.00     -0.00
                                0.00  31486.32     -0.00
                               -0.00     -0.00  31436.10

     exc-cor stress (kbar)  18203.56      0.00      0.00
                                0.00  18203.56      0.00
                                0.00      0.00  18204.43

     corecor stress (kbar) -35132.35      0.00     -0.00
                                0.00 -35132.35     -0.00
                               -0.00     -0.00 -35132.85

     ewald   stress (kbar) -93786.77      0.00     -0.00
                                0.00 -93786.77     -0.00
                               -0.00     -0.00 -93351.02

     hubbard stress (kbar)      0.00      0.00      0.00
                                0.00      0.00      0.00
                                0.00      0.00      0.00

     DFT-D   stress (kbar)      0.00      0.00      0.00
                                0.00      0.00      0.00
                                0.00      0.00      0.00

     XDM     stress (kbar)      0.00      0.00      0.00
                                0.00      0.00      0.00
                                0.00      0.00      0.00

     dft-nl  stress (kbar)      0.00      0.00      0.00
                                0.00      0.00      0.00
                                0.00      0.00      0.00

     TS-vdW  stress (kbar)      0.00      0.00      0.00
                                0.00      0.00      0.00
                                0.00      0.00      0.00

[...]

                                0.00      0.00      0.00

     Writing output data file ./fenipt/out/aiida.save/

     General routines
                                        0.02s GPU  (      42 calls)
                                       54.02s GPU  (  268676 calls)

     Parallel routines

     PAW routines

   This run was terminated on:   5:41:31  28Feb2025

   JOB DONE.
Warning: ieee_invalid is signaling
Warning: ieee_divide_by_zero is signaling
Warning: ieee_underflow is signaling
Warning: ieee_inexact is signaling
FORTRAN STOP