     Program PWSCF v.6.8 starts on 28Feb2025 at  4: 1: 0

     Reading input from ausurf.in
Warning: card &CELL ignored
Warning: card   CELL_DYNAMICS = 'NONE', ignored
Warning: card / ignored

     Current dimensions of program PWSCF are:
     Max number of different atomic species (ntypx) = 10
     Max number of k-points (npk) =  40000
     Max angular momentum in pseudopotentials (lmaxx) =  4

     Subspace diagonalization in iterative solution of the eigenvalue problem:
     a serial algorithm will be used

     Using Slab Decomposition

     Title:
      DEISA pw benchmark

     bravais-lattice index     =            8
     lattice parameter (alat)  =      38.7583  a.u.
     unit-cell volume          =   45191.4962 (a.u.)^3
     number of atoms/cell      =          112
     number of atomic types    =            1
     number of electrons       =      1232.00
     number of Kohn-Sham states=          800
     kinetic-energy cutoff     =      25.0000  Ry
     charge density cutoff     =     200.0000  Ry
     scf convergence threshold =      1.0E-06
     mixing beta               =       0.7000
     number of iterations used =            8  plain     mixing
     Exchange-correlation=  SLA  PW   PBE  PBE
                           (   1   4   3   4   0   0   0)

     GPU acceleration is ACTIVE.

     celldm(1)=  38.758300  celldm(2)=   0.494393  celldm(3)=   1.569966
     celldm(4)=   0.000000  celldm(5)=   0.000000  celldm(6)=   0.000000

     crystal axes: (cart. coord. in units of alat)
               a(1) = (   1.000000   0.000000   0.000000 )
               a(2) = (   0.000000   0.494393   0.000000 )
               a(3) = (   0.000000   0.000000   1.569966 )

     reciprocal axes: (cart. coord. in units 2 pi/alat)
               b(1) = (  1.000000  0.000000  0.000000 )
               b(2) = (  0.000000  2.022682  0.000000 )
               b(3) = (  0.000000  0.000000  0.636956 )

     PseudoPot. # 1 for Au read from file:
     ./Au.pbe-nd-van.UPF
     MD5 check sum: deb5c07af10777505a79e28f5b4b4115
     Pseudo is Ultrasoft + core correction, Zval = 11.0
     Generated by new atomic code, or converted to UPF format
     Using radial grid of  985 points,  3 beta functions with:
                l(1) =   1
                l(2) =   2
                l(3) =   2
     Q(r) pseudized with  8 coefficients,  rinner =    1.100   1.100   1.100
                                                       1.100   1.100

     atomic species   valence    mass     pseudopotential
        AU            11.00   196.96000     Au( 1.00)

     No symmetry found

   Cartesian axes

     site n.     atom                  positions (alat units)
         1           AU  tau(   1) = (   1.4278394   1.9784974   0.3497317  )
         2           AU  tau(   2) = (   1.4278394   1.7313986   0.3497317  )
         3           AU  tau(   3) = (   1.5706478   1.9784974   0.3497317  )
         4           AU  tau(   4) = (   1.5706478   1.7313986   0.3497317  )
         5           AU  tau(   5) = (   1.7134072   1.9784974   0.3497317  )
         6           AU  tau(   6) = (   1.7134072   1.7313986   0.3497317  )
         7           AU  tau(   7) = (   1.8562156   1.9784974   0.3497317  )
         8           AU  tau(   8) = (   1.8562156   1.7313986   0.3497317  )
         9           AU  tau(   9) = (   1.9989753   1.9784974   0.3497317  )
        10           AU  tau(  10) = (   1.9989753   1.7313986   0.3497317  )
        11           AU  tau(  11) = (   2.1417836   1.9784974   0.3497317  )
        12           AU  tau(  12) = (   2.1417836   1.7313986   0.3497317  )
        13           AU  tau(  13) = (   2.2845431   1.9784974   0.3497317  )
        14           AU  tau(  14) = (   2.2845431   1.7313986   0.3497317  )
        15           AU  tau(  15) = (   1.4278394   2.0609450   0.2331545  )
        16           AU  tau(  16) = (   1.4278394   1.8138461   0.2331545  )
        17           AU  tau(  17) = (   1.5706478   2.0609450   0.2331545  )
        18           AU  tau(  18) = (   1.5706478   1.8138461   0.2331545  )
        19           AU  tau(  19) = (   1.7134072   2.0609450   0.2331545  )
        20           AU  tau(  20) = (   1.7134072   1.8138461   0.2331545  )
        21           AU  tau(  21) = (   1.8562156   2.0609450   0.2331545  )
        22           AU  tau(  22) = (   1.8562156   1.8138461   0.2331545  )
        23           AU  tau(  23) = (   1.9989753   2.0609450   0.2331545  )
        24           AU  tau(  24) = (   1.9989753   1.8138461   0.2331545  )
        25           AU  tau(  25) = (   2.1417836   2.0609450   0.2331545  )
        26           AU  tau(  26) = (   2.1417836   1.8138461   0.2331545  )
        27           AU  tau(  27) = (   2.2845431   2.0609450   0.2331545  )
        28           AU  tau(  28) = (   2.2845431   1.8138461   0.2331545  )
        29           AU  tau(  29) = (   1.4992193   2.1021445   0.3497317  )
        30           AU  tau(  30) = (   1.4992193   1.8550455   0.3497317  )
        31           AU  tau(  31) = (   1.6420276   2.1021445   0.3497317  )
        32           AU  tau(  32) = (   1.6420276   1.8550455   0.3497317  )
        33           AU  tau(  33) = (   1.7847871   2.1021445   0.3497317  )
        34           AU  tau(  34) = (   1.7847871   1.8550455   0.3497317  )
        35           AU  tau(  35) = (   1.9275954   2.1021445   0.3497317  )
        36           AU  tau(  36) = (   1.9275954   1.8550455   0.3497317  )
        37           AU  tau(  37) = (   2.0704038   2.1021445   0.3497317  )
        38           AU  tau(  38) = (   2.0704038   1.8550455   0.3497317  )
        39           AU  tau(  39) = (   2.2131632   2.1021445   0.3497317  )
        40           AU  tau(  40) = (   2.2131632   1.8550455   0.3497317  )
        41           AU  tau(  41) = (   2.3559716   2.1021445   0.3497317  )
        42           AU  tau(  42) = (   2.3559716   1.8550455   0.3497317  )
        43           AU  tau(  43) = (   1.4992193   1.6901992   0.2331545  )
        44           AU  tau(  44) = (   1.4992193   1.9374930   0.2331545  )
        45           AU  tau(  45) = (   1.6420276   1.6901992   0.2331545  )
        46           AU  tau(  46) = (   1.6420276   1.9374930   0.2331545  )
        47           AU  tau(  47) = (   1.7847871   1.6901992   0.2331545  )
        48           AU  tau(  48) = (   1.7847871   1.9374930   0.2331545  )
        49           AU  tau(  49) = (   1.9275954   1.6901992   0.2331545  )
        50           AU  tau(  50) = (   1.9275954   1.9374930   0.2331545  )
        51           AU  tau(  51) = (   2.0704038   1.6901992   0.2331545  )
        52           AU  tau(  52) = (   2.0704038   1.9374930   0.2331545  )
        53           AU  tau(  53) = (   2.2131632   1.6901992   0.2331545  )
        54           AU  tau(  54) = (   2.2131632   1.9374930   0.2331545  )
        55           AU  tau(  55) = (   2.3559716   1.6901992   0.2331545  )
        56           AU  tau(  56) = (   2.3559716   1.9374930   0.2331545  )
        57           AU  tau(  57) = (   1.4278394   1.9784974   0.0000000  )
        58           AU  tau(  58) = (   1.4278394   1.7313986   0.0000000  )
        59           AU  tau(  59) = (   1.5706478   1.9784974   0.0000000  )
        60           AU  tau(  60) = (   1.5706478   1.7313986   0.0000000  )
[...]
        98           AU  tau(  98) = (   2.2845431   1.8962937   0.1165772  )
        99           AU  tau(  99) = (   1.4992193   2.1021445   0.0000000  )
       100           AU  tau( 100) = (   1.4992193   1.8550455   0.0000000  )
       101           AU  tau( 101) = (   1.6420276   2.1021445   0.0000000  )
       102           AU  tau( 102) = (   1.6420276   1.8550455   0.0000000  )
       103           AU  tau( 103) = (   1.7847871   2.1021445   0.0000000  )
       104           AU  tau( 104) = (   1.7847871   1.8550455   0.0000000  )
       105           AU  tau( 105) = (   1.9275954   2.1021445   0.0000000  )
       106           AU  tau( 106) = (   1.9275954   1.8550455   0.0000000  )
       107           AU  tau( 107) = (   2.0704038   2.1021445   0.0000000  )
       108           AU  tau( 108) = (   2.0704038   1.8550455   0.0000000  )
       109           AU  tau( 109) = (   2.2131632   2.1021445   0.0000000  )
       110           AU  tau( 110) = (   2.2131632   1.8550455   0.0000000  )
       111           AU  tau( 111) = (   2.3559716   2.1021445   0.0000000  )
       112           AU  tau( 112) = (   2.3559716   1.8550455   0.0000000  )

     number of k points=     2  Marzari-Vanderbilt smearing, width (Ry)=  0.0500
                       cart. coord. in units 2pi/alat
        k(    1) = (   0.2500000   0.5056706   0.0000000), wk =   1.0000000
        k(    2) = (  -0.2500000   0.5056706   0.0000000), wk =   1.0000000

     Initial potential from superposition of free atoms

     starting charge 1230.69946, renormalised to 1232.00000

     negative rho (up, down):  3.043E+00 0.000E+00
     Starting wfcs are 1008 randomized atomic wfcs

     Self-consistent Calculation

     iteration #  1     ecut=    25.00 Ry     beta= 0.70
     Davidson diagonalization with overlap
     ethr =  1.00E-02,  avg # of iterations =  4.0

     Threshold (ethr) on eigenvalues was too large:
     Diagonalizing with lowered threshold

     Davidson diagonalization with overlap
     ethr =  4.37E-04,  avg # of iterations = 18.5

     negative rho (up, down):  2.992E+00 0.000E+00

     total energy              =  -11423.48916685 Ry
     estimated scf accuracy    <       6.31783615 Ry

[...]

     iteration #  7     ecut=    25.00 Ry     beta= 0.70
     Davidson diagonalization with overlap
     c_bands:  2 eigenvalues not converged
     c_bands:  3 eigenvalues not converged
     ethr =  7.35E-06,  avg # of iterations = 20.0

[...]

     total energy              =  -11427.09402220 Ry
     estimated scf accuracy    <       0.00000111 Ry

     iteration # 21     ecut=    25.00 Ry     beta= 0.70
     Davidson diagonalization with overlap
     ethr =  9.05E-11,  avg # of iterations =  2.0

[...]

     End of self-consistent calculation

          k = 0.2500 0.5057 0.0000 ( 95386 PWs)   bands (ev):

    -8.0050  -7.7856  -7.3697  -7.1566  -6.9591  -6.8866  -6.8077  -6.6748
    -6.6111  -6.2902  -6.2196  -6.1892  -6.1052  -6.0376  -5.9304  -5.9281
    -5.8889  -5.8393  -5.8312  -5.8251  -5.7941  -5.7363  -5.7242  -5.6816
    -5.6676  -5.6498  -5.6456  -5.6404  -5.5500  -5.5387  -5.5312  -5.5229
    -5.5167  -5.5075  -5.4893  -5.4815  -5.4631  -5.4597  -5.4284  -5.3754
    -5.3693  -5.3540  -5.3517  -5.3173  -5.3101  -5.2940  -5.2914  -5.2339
    -5.2329  -5.2329  -5.2285  -5.2185  -5.1999  -5.1789  -5.1556  -5.1449
    -5.1301  -5.1246  -5.1158  -5.1143  -5.1108  -5.1094  -5.0882  -5.0677
    -5.0649  -5.0572  -5.0560  -5.0490  -5.0409  -5.0378  -5.0306  -4.9879
    -4.9823  -4.9670  -4.9640  -4.9482  -4.9343  -4.9326  -4.9289  -4.9271
    -4.9178  -4.9162  -4.9071  -4.9041  -4.8860  -4.8854  -4.8819  -4.8721
    -4.8720  -4.8622  -4.8597  -4.8489  -4.8281  -4.8271  -4.8249  -4.8223
    -4.7420  -4.7394  -4.7378  -4.7369  -4.7331  -4.7257  -4.7212  -4.7210
[...]
    -4.1374  -4.1046  -4.0973  -4.0835  -4.0775  -4.0764  -4.0700  -4.0546
    -4.0507  -4.0354  -4.0308  -4.0241  -4.0215  -4.0174  -4.0086  -3.9940
    -3.9869  -3.9709  -3.9588  -3.9277  -3.9141  -3.8987  -3.8932  -3.8897
    -3.8711  -3.8709  -3.8612  -3.8376  -3.8367  -3.8330  -3.8166  -3.8085
    -3.7861  -3.7803  -3.7393  -3.7359  -3.7267  -3.7242  -3.7150  -3.7103
    -3.7010  -3.6853  -3.6809  -3.6713  -3.6591  -3.6406  -3.6193  -3.6193
    -3.6174  -3.6163  -3.6056  -3.6019  -3.5992  -3.5954  -3.5918  -3.5798
    -3.5699  -3.5671  -3.5645  -3.5596  -3.5576  -3.5510  -3.5460  -3.5450
    -3.5436  -3.5343  -3.5237  -3.4924  -3.4823  -3.4564  -3.4542  -3.4430
    -3.4426  -3.4406  -3.4393  -3.4261  -3.4215  -3.4129  -3.4053  -3.3970
    -3.3879  -3.3798  -3.3741  -3.3721  -3.3704  -3.3696  -3.3644  -3.3564
    -3.3526  -3.3375  -3.3358  -3.3270  -3.3262  -3.3244  -3.3201  -3.3171
    -3.3135  -3.3131  -3.3092  -3.3088  -3.2999  -3.2969  -3.2920  -3.2862
    -3.2816  -3.2795  -3.2591  -3.2498  -3.2469  -3.2439  -3.2382  -3.2289
    -3.2197  -3.2190  -3.2142  -3.2103  -3.2023  -3.1998  -3.1890  -3.1807
    -3.1791  -3.1733  -3.1722  -3.1685  -3.1670  -3.1593  -3.1582  -3.1459
    -3.1457  -3.1218  -3.1212  -3.1107  -3.0983  -3.0907  -3.0844  -3.0580
    -3.0415  -3.0401  -3.0346  -3.0333  -3.0262  -3.0240  -3.0232  -3.0182
    -3.0173  -3.0164  -3.0156  -3.0091  -3.0025  -3.0016  -2.9894  -2.9849
    -2.9819  -2.9808  -2.9801  -2.9751  -2.9750  -2.9711  -2.9687  -2.9509
    -2.9153  -2.9131  -2.8902  -2.8758  -2.8742  -2.8624  -2.8598  -2.8494
    -2.8476  -2.8280  -2.8221  -2.8206  -2.7998  -2.7962  -2.7956  -2.7831
    -2.7799  -2.7754  -2.7674  -2.7641  -2.7503  -2.7492  -2.7469  -2.7421
    -2.7233  -2.7225  -2.7207  -2.7181  -2.6628  -2.6544  -2.6463  -2.6368
    -2.6296  -2.6262  -2.6216  -2.5956  -2.5801  -2.5698  -2.5675  -2.5670
    -2.5636  -2.5591  -2.5532  -2.5409  -2.5281  -2.5253  -2.5195  -2.5162
    -2.5091  -2.5073  -2.5011  -2.4930  -2.4900  -2.4864  -2.4805  -2.4793
    -2.4733  -2.4724  -2.4666  -2.4658  -2.4600  -2.4492  -2.4354  -2.4348
    -2.4065  -2.4001  -2.3983  -2.3743  -2.3704  -2.3633  -2.3559  -2.3558
    -2.3488  -2.3453  -2.3357  -2.3325  -2.3154  -2.3005  -2.2929  -2.2719
    -2.2687  -2.2668  -2.2637  -2.2488  -2.2434  -2.2336  -2.2317  -2.2151
    -2.2127  -2.2056  -2.2053  -2.1979  -2.1972  -2.1783  -2.1450  -2.1362
    -2.1305  -2.1059  -2.1024  -2.0848  -2.0676  -2.0486  -2.0476  -2.0442
    -2.0374  -2.0319  -2.0024  -1.9984  -1.9949  -1.9641  -1.9607  -1.9574
    -1.9561  -1.9520  -1.9482  -1.9454  -1.9394  -1.9389  -1.9370  -1.9309
    -1.9300  -1.9276  -1.9172  -1.9123  -1.9079  -1.9022  -1.8648  -1.8558
    -1.8550  -1.8387  -1.8311  -1.8273  -1.8233  -1.8171  -1.8162  -1.8137
    -1.8116  -1.8015  -1.8002  -1.7991  -1.7935  -1.7666  -1.7596  -1.7586
    -1.7576  -1.7484  -1.7433  -1.7425  -1.7367  -1.7367  -1.7267  -1.7239
    -1.7063  -1.7048  -1.6990  -1.6980  -1.6881  -1.6745  -1.6703  -1.6659
    -1.6636  -1.6588  -1.6508  -1.6288  -1.6131  -1.6038  -1.5994  -1.5975
[...]
     4.4719   4.4972   4.5209   4.5648   4.6630   4.8051   4.8114   4.8409
     4.8497   4.8523   4.8938   4.9669   4.9889   5.0740   5.0906   5.1944
     5.2013   5.2117   5.2378   5.2618   5.3013   5.4403   5.4932   5.5254
     5.5325   5.5330   5.5443   5.6497   5.6731   5.7195   5.7317   5.8366
     5.8521   5.8738   5.8956   5.9063   5.9063   5.9800   5.9911   6.0158
     6.0171   6.0264   6.0329   6.0422   6.0869   6.1381   6.1418   6.1477
     6.1656   6.2221   6.2292   6.3071   6.4015   6.4092   6.4469   6.4472
     6.4738   6.5147   6.5236   6.5725   6.5877   6.6322   6.6407   6.6538
     6.6609   6.6907   6.7353   6.7481   6.7689   6.8237   6.8288   6.9307
     6.9365   6.9722   6.9726   6.9987   7.0274   7.0635   7.1003   7.1088
     7.1283   7.1636   7.1906   7.1920   7.1998   7.2022   7.2794   7.2910
     7.3065   7.3546   7.3590   7.4024   7.4171   7.4340   7.4641   7.5085
     7.5607   7.5674   7.6061   7.6175   7.6582   7.6583   7.6666   7.6692
     7.6930   7.6937   7.7179   7.7228   7.7376   7.7419   7.7924   7.8309
     7.8579   7.8670   7.8739   7.9408   7.9893   7.9901   8.0016   8.0251

          k =-0.2500 0.5057 0.0000 ( 95386 PWs)   bands (ev):

    -8.0050  -7.7856  -7.3697  -7.1566  -6.9591  -6.8866  -6.8077  -6.6748
    -6.6111  -6.2902  -6.2196  -6.1892  -6.1052  -6.0376  -5.9304  -5.9281
    -5.8889  -5.8393  -5.8312  -5.8251  -5.7941  -5.7363  -5.7242  -5.6816
    -5.6676  -5.6498  -5.6456  -5.6404  -5.5500  -5.5387  -5.5312  -5.5229
    -5.5167  -5.5075  -5.4893  -5.4815  -5.4631  -5.4597  -5.4284  -5.3754
    -5.3693  -5.3540  -5.3517  -5.3173  -5.3101  -5.2940  -5.2914  -5.2339
    -5.2329  -5.2329  -5.2285  -5.2185  -5.1999  -5.1789  -5.1556  -5.1449
    -5.1301  -5.1246  -5.1158  -5.1143  -5.1108  -5.1094  -5.0882  -5.0677
    -5.0649  -5.0572  -5.0560  -5.0490  -5.0409  -5.0378  -5.0306  -4.9879
    -4.9823  -4.9670  -4.9640  -4.9482  -4.9343  -4.9326  -4.9289  -4.9271
    -4.9178  -4.9162  -4.9071  -4.9041  -4.8860  -4.8854  -4.8819  -4.8721
    -4.8720  -4.8622  -4.8597  -4.8489  -4.8281  -4.8271  -4.8249  -4.8223
    -4.7420  -4.7394  -4.7378  -4.7369  -4.7331  -4.7257  -4.7213  -4.7209
    -4.7203  -4.7122  -4.6997  -4.6849  -4.6743  -4.6167  -4.6003  -4.5972
    -4.5935  -4.5852  -4.5626  -4.5612  -4.5576  -4.5269  -4.4707  -4.4696
    -4.4510  -4.4139  -4.3980  -4.3953  -4.3936  -4.3933  -4.3918  -4.3855
    -4.3554  -4.3457  -4.3452  -4.3372  -4.3257  -4.3231  -4.3203  -4.3037
    -4.3023  -4.2740  -4.2646  -4.2575  -4.2478  -4.2453  -4.2295  -4.2107
    -4.1938  -4.1680  -4.1563  -4.1551  -4.1547  -4.1531  -4.1484  -4.1396
    -4.1374  -4.1046  -4.0973  -4.0835  -4.0775  -4.0764  -4.0700  -4.0546
    -4.0507  -4.0354  -4.0308  -4.0242  -4.0214  -4.0174  -4.0086  -3.9940
    -3.9869  -3.9709  -3.9588  -3.9277  -3.9141  -3.8987  -3.8932  -3.8897
    -3.8711  -3.8709  -3.8612  -3.8376  -3.8367  -3.8331  -3.8166  -3.8085
    -3.7860  -3.7803  -3.7393  -3.7359  -3.7267  -3.7242  -3.7150  -3.7103
    -3.7010  -3.6853  -3.6809  -3.6713  -3.6591  -3.6406  -3.6193  -3.6193
    -3.6174  -3.6163  -3.6056  -3.6019  -3.5992  -3.5954  -3.5918  -3.5798
    -3.5699  -3.5671  -3.5645  -3.5596  -3.5576  -3.5510  -3.5460  -3.5450
    -3.5436  -3.5343  -3.5237  -3.4924  -3.4823  -3.4564  -3.4542  -3.4430
    -3.4426  -3.4406  -3.4393  -3.4261  -3.4214  -3.4129  -3.4053  -3.3970
    -3.3879  -3.3798  -3.3741  -3.3721  -3.3704  -3.3696  -3.3644  -3.3564
    -3.3526  -3.3375  -3.3358  -3.3270  -3.3262  -3.3245  -3.3201  -3.3171
    -3.3135  -3.3131  -3.3092  -3.3088  -3.2999  -3.2970  -3.2920  -3.2862
    -3.2816  -3.2795  -3.2591  -3.2497  -3.2469  -3.2439  -3.2382  -3.2289
    -3.2197  -3.2190  -3.2142  -3.2103  -3.2023  -3.1998  -3.1890  -3.1807
    -3.1791  -3.1733  -3.1722  -3.1685  -3.1670  -3.1593  -3.1582  -3.1459
    -3.1457  -3.1218  -3.1212  -3.1107  -3.0983  -3.0907  -3.0844  -3.0580
    -3.0415  -3.0400  -3.0346  -3.0333  -3.0262  -3.0240  -3.0232  -3.0181
    -3.0174  -3.0164  -3.0156  -3.0091  -3.0025  -3.0016  -2.9894  -2.9849
    -2.9819  -2.9807  -2.9801  -2.9751  -2.9750  -2.9711  -2.9687  -2.9509
    -2.9153  -2.9131  -2.8902  -2.8758  -2.8742  -2.8624  -2.8598  -2.8494
    -2.8476  -2.8280  -2.8221  -2.8206  -2.7998  -2.7962  -2.7956  -2.7831
    -2.7799  -2.7754  -2.7674  -2.7641  -2.7503  -2.7492  -2.7469  -2.7421
    -2.7233  -2.7225  -2.7207  -2.7181  -2.6628  -2.6544  -2.6463  -2.6368
    -2.6296  -2.6262  -2.6216  -2.5956  -2.5801  -2.5698  -2.5675  -2.5670
    -2.5636  -2.5591  -2.5532  -2.5409  -2.5281  -2.5253  -2.5195  -2.5162
    -2.5090  -2.5073  -2.5012  -2.4930  -2.4900  -2.4864  -2.4805  -2.4793
    -2.4733  -2.4724  -2.4666  -2.4658  -2.4600  -2.4492  -2.4354  -2.4348
    -2.4065  -2.4001  -2.3983  -2.3743  -2.3704  -2.3633  -2.3559  -2.3558
    -2.3488  -2.3453  -2.3357  -2.3325  -2.3153  -2.3005  -2.2929  -2.2720
    -2.2687  -2.2668  -2.2637  -2.2488  -2.2434  -2.2337  -2.2317  -2.2151
    -2.2127  -2.2056  -2.2053  -2.1979  -2.1972  -2.1783  -2.1450  -2.1362
    -2.1305  -2.1059  -2.1024  -2.0848  -2.0676  -2.0486  -2.0476  -2.0442
    -2.0374  -2.0319  -2.0024  -1.9984  -1.9949  -1.9641  -1.9607  -1.9574
    -1.9561  -1.9520  -1.9482  -1.9454  -1.9394  -1.9389  -1.9370  -1.9310
    -1.9300  -1.9276  -1.9172  -1.9123  -1.9079  -1.9022  -1.8648  -1.8558
    -1.8550  -1.8387  -1.8311  -1.8273  -1.8233  -1.8171  -1.8162  -1.8137
    -1.8116  -1.8015  -1.8002  -1.7991  -1.7935  -1.7666  -1.7597  -1.7586
    -1.7575  -1.7484  -1.7433  -1.7425  -1.7367  -1.7366  -1.7267  -1.7239
    -1.7063  -1.7048  -1.6990  -1.6980  -1.6881  -1.6745  -1.6703  -1.6659
    -1.6636  -1.6588  -1.6508  -1.6288  -1.6131  -1.6038  -1.5994  -1.5975
[...]
     4.4719   4.4972   4.5209   4.5648   4.6630   4.8051   4.8114   4.8409
     4.8497   4.8523   4.8938   4.9669   4.9889   5.0740   5.0906   5.1944
     5.2013   5.2117   5.2378   5.2618   5.3013   5.4403   5.4932   5.5254
     5.5325   5.5330   5.5443   5.6497   5.6731   5.7195   5.7317   5.8366
     5.8521   5.8738   5.8956   5.9063   5.9063   5.9800   5.9911   6.0158
     6.0171   6.0264   6.0329   6.0422   6.0869   6.1381   6.1418   6.1477
     6.1656   6.2221   6.2292   6.3071   6.4015   6.4092   6.4469   6.4472
     6.4738   6.5147   6.5236   6.5725   6.5877   6.6322   6.6407   6.6538
     6.6609   6.6907   6.7353   6.7481   6.7689   6.8237   6.8288   6.9307
     6.9365   6.9722   6.9726   6.9987   7.0274   7.0635   7.1003   7.1088
     7.1283   7.1636   7.1906   7.1920   7.1998   7.2022   7.2794   7.2910
     7.3065   7.3546   7.3590   7.4024   7.4171   7.4340   7.4641   7.5085
     7.5607   7.5674   7.6061   7.6175   7.6582   7.6583   7.6666   7.6692
     7.6931   7.6937   7.7179   7.7228   7.7376   7.7419   7.7924   7.8309
     7.8579   7.8670   7.8740   7.9402   7.9893   7.9964   8.0016   8.0252

     the Fermi energy is     0.7843 ev

!    total energy              =  -11427.09402171 Ry
     estimated scf accuracy    <       0.00000069 Ry
     smearing contrib. (-TS)   =       0.06310077 Ry
     internal energy E=F+TS    =  -11427.15712248 Ry

     The total energy is F=E-TS. E is the sum of the following terms:
     one-electron contribution = -129707.81883289 Ry
     hartree contribution      =   65678.00393088 Ry
     xc contribution           =   -5523.82473847 Ry
     ewald contribution        =   58126.48251799 Ry

     convergence has been achieved in  21 iterations

     negative rho (up, down):  3.085E+00 0.000E+00

     Forces acting on atoms (cartesian axes, Ry/au):

     atom    1 type  1   force =    -0.00101339    0.00014882    0.00841054
     atom    2 type  1   force =    -0.00100630   -0.00020479    0.00813869
     atom    3 type  1   force =    -0.00007375    0.00021074    0.00901123
     atom    4 type  1   force =    -0.00007464   -0.00015112    0.00872963
     atom    5 type  1   force =     0.00006944    0.00024098    0.00909370
     atom    6 type  1   force =     0.00006648   -0.00012120    0.00880910
     atom    7 type  1   force =    -0.00006733    0.00022474    0.00911920
     atom    8 type  1   force =    -0.00006754   -0.00014139    0.00883648
     atom    9 type  1   force =     0.00019129    0.00022283    0.00908217
     atom   10 type  1   force =     0.00019089   -0.00013956    0.00879947
     atom   11 type  1   force =    -0.00012615    0.00023376    0.00906480
     atom   12 type  1   force =    -0.00012655   -0.00012708    0.00878224
     atom   13 type  1   force =     0.00065857    0.00025685    0.00886873
     atom   14 type  1   force =     0.00065728   -0.00010339    0.00859227
     atom   15 type  1   force =    -0.00128605    0.00041595   -0.00532222
     atom   16 type  1   force =    -0.00127906   -0.00007247   -0.00541411
     atom   17 type  1   force =    -0.00009436    0.00038989   -0.00535968
     atom   18 type  1   force =    -0.00009285   -0.00010910   -0.00545515
     atom   19 type  1   force =    -0.00001087    0.00039276   -0.00530157
     atom   20 type  1   force =    -0.00001214   -0.00010213   -0.00540170
     atom   21 type  1   force =    -0.00015219    0.00039680   -0.00521645
     atom   22 type  1   force =    -0.00014879   -0.00009661   -0.00531749
     atom   23 type  1   force =     0.00028059    0.00039688   -0.00519948
     atom   24 type  1   force =     0.00028006   -0.00010062   -0.00529824
     atom   25 type  1   force =    -0.00011446    0.00038948   -0.00525243
     atom   26 type  1   force =    -0.00011371   -0.00010477   -0.00534926
     atom   27 type  1   force =     0.00087541    0.00039181   -0.00526986
     atom   28 type  1   force =     0.00087390   -0.00010460   -0.00536501
     atom   29 type  1   force =    -0.00053941   -0.00010135    0.00861162
     atom   30 type  1   force =    -0.00054085   -0.00050571    0.00866392
     atom   31 type  1   force =    -0.00000073   -0.00012306    0.00880583
     atom   32 type  1   force =    -0.00000278   -0.00052596    0.00885837
     atom   33 type  1   force =     0.00009317   -0.00013506    0.00882388
     atom   34 type  1   force =     0.00009416   -0.00053614    0.00887552
     atom   35 type  1   force =     0.00006750   -0.00012083    0.00889271
     atom   36 type  1   force =     0.00006756   -0.00052426    0.00894557
     atom   37 type  1   force =    -0.00005651   -0.00012829    0.00877461
     atom   38 type  1   force =    -0.00005554   -0.00052933    0.00882677
     atom   39 type  1   force =    -0.00000320   -0.00013408    0.00879204
     atom   40 type  1   force =    -0.00000286   -0.00053745    0.00884461
     atom   41 type  1   force =     0.00081438   -0.00021878    0.00811845
     atom   42 type  1   force =     0.00081818   -0.00061357    0.00817025
     atom   43 type  1   force =    -0.00066810   -0.00010273   -0.00536537
     atom   44 type  1   force =    -0.00067227   -0.00062885   -0.00532961
     atom   45 type  1   force =    -0.00005789   -0.00010562   -0.00537956
     atom   46 type  1   force =    -0.00005763   -0.00062971   -0.00534368
     atom   47 type  1   force =     0.00003038   -0.00009682   -0.00529745
     atom   48 type  1   force =     0.00003172   -0.00062190   -0.00525876
     atom   49 type  1   force =     0.00007541   -0.00010024   -0.00523097
     atom   50 type  1   force =     0.00007587   -0.00062534   -0.00519394
     atom   51 type  1   force =    -0.00000402   -0.00009690   -0.00525930
     atom   52 type  1   force =    -0.00000763   -0.00062342   -0.00522082
     atom   53 type  1   force =     0.00002508   -0.00010855   -0.00530978
     atom   54 type  1   force =     0.00002536   -0.00063736   -0.00527267
     atom   55 type  1   force =     0.00108846   -0.00006698   -0.00533784
     atom   56 type  1   force =     0.00109260   -0.00058460   -0.00530109
     atom   57 type  1   force =    -0.00094020    0.00069677   -0.00845637
     atom   58 type  1   force =    -0.00093733    0.00022751   -0.00813651
     atom   59 type  1   force =    -0.00004102    0.00065005   -0.00905412
     atom   60 type  1   force =    -0.00004191    0.00017326   -0.00872574
[...]
     atom   98 type  1   force =     0.00090929   -0.00072698    0.00555043
     atom   99 type  1   force =    -0.00048664    0.00011678   -0.00859576
     atom  100 type  1   force =    -0.00048773   -0.00029261   -0.00866057
     atom  101 type  1   force =     0.00001253    0.00013897   -0.00878877
     atom  102 type  1   force =     0.00001417   -0.00026872   -0.00885406
     atom  103 type  1   force =     0.00004970    0.00014738   -0.00880743
     atom  104 type  1   force =     0.00005248   -0.00025730   -0.00887125
     atom  105 type  1   force =    -0.00001804    0.00013274   -0.00886901
     atom  106 type  1   force =    -0.00001865   -0.00027236   -0.00893506
     atom  107 type  1   force =    -0.00010778    0.00014093   -0.00875652
     atom  108 type  1   force =    -0.00011025   -0.00026129   -0.00882038
     atom  109 type  1   force =     0.00002188    0.00015050   -0.00876726
     atom  110 type  1   force =     0.00002253   -0.00025941   -0.00883187
     atom  111 type  1   force =     0.00089101    0.00023299   -0.00810143
     atom  112 type  1   force =     0.00089500   -0.00016864   -0.00816504

     Total force =     0.077001     Total SCF correction =     0.005070

     Writing output data file ./out/ausurf.save/

     General routines
                                        0.05s GPU  (      26 calls)
                                       53.55s GPU  (   12806 calls)

     Parallel routines

   This run was terminated on:   4:13:30  28Feb2025

   JOB DONE.
Warning: ieee_invalid is signaling
Warning: ieee_underflow is signaling
Warning: ieee_inexact is signaling
FORTRAN STOP